&CONTROL
	calculation='relax'
	restart_mode='from_scratch'
	prefix='a-1b0'
	pseudo_dir='/home/ngys/Desktop/pseudo'
	outdir='./tmp'
	tstress=.true.
/ 
&SYSTEM
	ibrav=0,
	celldm(1)=15.28909
	nat=30
	ntyp=1
	ecutwfc=50.0,
	ecutrho=400.0,
	occupations='smearing'
	smearing='gaussian'
	degauss=0.01
	vdw_corr='DFT-D3'
/ 
&ELECTRONS
	conv_thr=1.d-8
	mixing_beta=0.4
/ 
&IONS
	ion_dynamics='bfgs' ,
/ 
ATOMIC_SPECIES
B	10.811	B.pbe-n-kjpaw_psl.1.0.0.UPF	
CELL_PARAMETERS (alat)
0.99065561	0.00000000	0.00000000	
0.00000000	1.06017454	0.00000000	
0.00000000	0.00000000	2.47282061	
ATOMIC_POSITIONS {alat}
B	0.00011482	0.00018798	-0.00012565	
B	0.09919859	0.17690446	0.11308475	
B	0.00011483	0.35358070	-0.00012592	
B	0.09919859	0.53029612	0.11308637	
B	0.00011482	0.70697198	-0.00012663	
B	0.09919857	0.88368717	0.11308711	
B	0.19824592	0.00018795	-0.00012569	
B	0.29732962	0.17690447	0.11308487	
B	0.19824593	0.35358072	-0.00012602	
B	0.29732962	0.53029613	0.11308646	
B	0.19824592	0.70697201	-0.00012668	
B	0.29732961	0.88368715	0.11308717	
B	0.39637693	0.00018795	-0.00012573	
B	0.49546065	0.17690448	0.11308488	
B	0.39637692	0.35358073	-0.00012606	
B	0.49546064	0.53029612	0.11308645	
B	0.39637691	0.70697201	-0.00012669	
B	0.49546064	0.88368715	0.11308721	
B	0.59450802	0.00018797	-0.00012575	
B	0.69359180	0.17690450	0.11308477	
B	0.59450801	0.35358073	-0.00012599	
B	0.69359181	0.53029610	0.11308635	
B	0.59450802	0.70697198	-0.00012668	
B	0.69359181	0.88368715	0.11308718	
B	0.79263922	0.00018799	-0.00012570	
B	0.89172303	0.17690450	0.11308470	
B	0.79263922	0.35358071	-0.00012589	
B	0.89172303	0.53029608	0.11308631	
B	0.79263922	0.70697197	-0.00012663	
B	0.89172301	0.88368717	0.11308713	
K_POINTS {AUTOMATIC}
3 3 1 0 0 0
