&CONTROL
	calculation='relax'
	restart_mode='from_scratch'
	prefix='a-1b-1'
	pseudo_dir='/home/ngys/Desktop/pseudo'
	outdir='./tmp'
	tstress=.true.
/ 
&SYSTEM
	ibrav=0,
	celldm(1)=15.28909
	nat=30
	ntyp=1
	ecutwfc=50.0,
	ecutrho=400.0,
	occupations='smearing'
	smearing='gaussian'
	degauss=0.01
	vdw_corr='DFT-D3'
/ 
&ELECTRONS
	conv_thr=1.d-8
	mixing_beta=0.4
/ 
&IONS
	ion_dynamics='bfgs' ,
/ 
ATOMIC_SPECIES
B	10.811	B.pbe-n-kjpaw_psl.1.0.0.UPF	
CELL_PARAMETERS (alat)
0.99065561	0.00000000	0.00000000	
0.00000000	1.04957279	0.00000000	
0.00000000	0.00000000	2.47282061	
ATOMIC_POSITIONS {alat}
B	0.00012012	0.00019486	-0.00019324	
B	0.09919311	0.17512671	0.11315227	
B	0.00012014	0.35005351	-0.00019357	
B	0.09919310	0.52498457	0.11315396	
B	0.00012011	0.69991088	-0.00019425	
B	0.09919308	0.87484160	0.11315473	
B	0.19825126	0.00019485	-0.00019314	
B	0.29732423	0.17512671	0.11315215	
B	0.19825127	0.35005351	-0.00019350	
B	0.29732424	0.52498458	0.11315383	
B	0.19825126	0.69991089	-0.00019413	
B	0.29732423	0.87484160	0.11315460	
B	0.39638237	0.00019485	-0.00019304	
B	0.49545534	0.17512671	0.11315209	
B	0.39638237	0.35005350	-0.00019338	
B	0.49545533	0.52498458	0.11315377	
B	0.39638237	0.69991089	-0.00019401	
B	0.49545534	0.87484160	0.11315456	
B	0.59451350	0.00019485	-0.00019309	
B	0.69358646	0.17512671	0.11315219	
B	0.59451349	0.35005351	-0.00019340	
B	0.69358646	0.52498458	0.11315386	
B	0.59451350	0.69991089	-0.00019405	
B	0.69358647	0.87484160	0.11315467	
B	0.79264461	0.00019486	-0.00019322	
B	0.89171758	0.17512671	0.11315230	
B	0.79264461	0.35005351	-0.00019352	
B	0.89171758	0.52498457	0.11315398	
B	0.79264462	0.69991088	-0.00019421	
B	0.89171756	0.87484160	0.11315478	
K_POINTS {AUTOMATIC}
3 3 1 0 0 0
