&CONTROL
	calculation='relax'
	restart_mode='from_scratch'
	prefix='a-1b1'
	pseudo_dir='/home/ngys/Desktop/pseudo'
	outdir='./tmp'
	tstress=.true.
/ 
&SYSTEM
	ibrav=0,
	celldm(1)=15.28909
	nat=30
	ntyp=1
	ecutwfc=50.0,
	ecutrho=400.0,
	occupations='smearing'
	smearing='gaussian'
	degauss=0.01
	vdw_corr='DFT-D3'
/ 
&ELECTRONS
	conv_thr=1.d-8
	mixing_beta=0.4
/ 
&IONS
	ion_dynamics='bfgs' ,
/ 
ATOMIC_SPECIES
B	10.811	B.pbe-n-kjpaw_psl.1.0.0.UPF	
CELL_PARAMETERS (alat)
0.99065561	0.00000000	0.00000000	
0.00000000	1.07077628	0.00000000	
0.00000000	0.00000000	2.47282061	
ATOMIC_POSITIONS {alat}
B	0.00005788	0.00012247	-0.00008364	
B	0.09925654	0.17874063	0.11304285	
B	0.00005700	0.35705003	-0.00008321	
B	0.09925662	0.53566515	0.11304429	
B	0.00005782	0.71397527	-0.00008474	
B	0.09925741	0.89259116	0.11304494	
B	0.19818675	0.00012208	-0.00008319	
B	0.29738619	0.17874036	0.11304220	
B	0.19818621	0.35705005	-0.00008331	
B	0.29738628	0.53566542	0.11304363	
B	0.19818687	0.71397570	-0.00008432	
B	0.29738638	0.89259107	0.11304410	
B	0.39631679	0.00012196	-0.00008231	
B	0.49551814	0.17874056	0.11304095	
B	0.39631725	0.35705010	-0.00008239	
B	0.49551825	0.53566524	0.11304232	
B	0.39631691	0.71397576	-0.00008343	
B	0.49551746	0.89259110	0.11304312	
B	0.59444942	0.00012229	-0.00008178	
B	0.69365141	0.17874087	0.11304098	
B	0.59445028	0.35705012	-0.00008157	
B	0.69365124	0.53566495	0.11304229	
B	0.59444945	0.71397534	-0.00008291	
B	0.69365065	0.89259111	0.11304332	
B	0.79258260	0.00012267	-0.00008273	
B	0.89178288	0.17874101	0.11304224	
B	0.79258276	0.35705009	-0.00008215	
B	0.89178273	0.53566477	0.11304365	
B	0.79258235	0.71397499	-0.00008391	
B	0.89178320	0.89259119	0.11304473	
K_POINTS {AUTOMATIC}
3 3 1 0 0 0
