&CONTROL
	calculation='relax'
	restart_mode='from_scratch'
	prefix='a-2b0'
	pseudo_dir='/home/ngys/Desktop/pseudo'
	outdir='./tmp'
	tstress=.true.
/ 
&SYSTEM
	ibrav=0,
	celldm(1)=15.28909
	nat=30
	ntyp=1
	ecutwfc=50.0,
	ecutrho=400.0,
	occupations='smearing'
	smearing='gaussian'
	degauss=0.01
	vdw_corr='DFT-D3'
/ 
&ELECTRONS
	conv_thr=1.d-8
	mixing_beta=0.4
/ 
&IONS
	ion_dynamics='bfgs' ,
/ 
ATOMIC_SPECIES
B	10.811	B.pbe-n-kjpaw_psl.1.0.0.UPF	
CELL_PARAMETERS (alat)
0.98064899	0.00000000	0.00000000	
0.00000000	1.06017454	0.00000000	
0.00000000	0.00000000	2.47282061	
ATOMIC_POSITIONS {alat}
B	0.00011839	0.00019295	-0.00072723	
B	0.09817732	0.17689953	0.11366483	
B	0.00011842	0.35358553	-0.00072755	
B	0.09817729	0.53029123	0.11366626	
B	0.00011836	0.70697678	-0.00072798	
B	0.09817729	0.88368219	0.11366699	
B	0.19627141	0.00019300	-0.00071880	
B	0.29429991	0.17689952	0.11368032	
B	0.19627143	0.35358558	-0.00071915	
B	0.29429993	0.53029122	0.11368175	
B	0.19627143	0.70697682	-0.00071956	
B	0.29429989	0.88368219	0.11368248	
B	0.39238955	0.00019310	-0.00070619	
B	0.49045521	0.17689952	0.11368844	
B	0.39238955	0.35358567	-0.00070654	
B	0.49045520	0.53029121	0.11368987	
B	0.39238953	0.70697691	-0.00070693	
B	0.49045522	0.88368219	0.11369063	
B	0.58848953	0.00019309	-0.00070696	
B	0.68660755	0.17689953	0.11367799	
B	0.58848953	0.35358567	-0.00070728	
B	0.68660757	0.53029124	0.11367941	
B	0.58848955	0.70697692	-0.00070770	
B	0.68660757	0.88368220	0.11368018	
B	0.78461165	0.00019298	-0.00071995	
B	0.88272574	0.17689953	0.11366334	
B	0.78461163	0.35358556	-0.00072025	
B	0.88272575	0.53029123	0.11366476	
B	0.78461166	0.70697682	-0.00072070	
B	0.88272573	0.88368220	0.11366551	
K_POINTS {AUTOMATIC}
3 3 1 0 0 0
