&CONTROL
	calculation='relax'
	restart_mode='from_scratch'
	prefix='a-2b-2'
	pseudo_dir='/home/ngys/Desktop/pseudo'
	outdir='./tmp'
	tstress=.true.
/ 
&SYSTEM
	ibrav=0,
	celldm(1)=15.28909
	nat=30
	ntyp=1
	ecutwfc=50.0,
	ecutrho=400.0,
	occupations='smearing'
	smearing='gaussian'
	degauss=0.01
	vdw_corr='DFT-D3'
/ 
&ELECTRONS
	conv_thr=1.d-8
	mixing_beta=0.4
/ 
&IONS
	ion_dynamics='bfgs' ,
/ 
ATOMIC_SPECIES
B	10.811	B.pbe-n-kjpaw_psl.1.0.0.UPF	
CELL_PARAMETERS (alat)
0.98064899	0.00000000	0.00000000	
0.00000000	1.03897104	0.00000000	
0.00000000	0.00000000	2.47282061	
ATOMIC_POSITIONS {alat}
B	0.00012115	0.00019126	-0.00067497	
B	0.09817469	0.17335923	0.11361243	
B	0.00012118	0.34651605	-0.00067535	
B	0.09817467	0.51968314	0.11361398	
B	0.00012111	0.69283944	-0.00067586	
B	0.09817467	0.86600623	0.11361470	
B	0.19627419	0.00019149	-0.00066639	
B	0.29429719	0.17335905	0.11362788	
B	0.19627417	0.34651626	-0.00066679	
B	0.29429721	0.51968295	0.11362944	
B	0.19627419	0.69283965	-0.00066726	
B	0.29429721	0.86600604	0.11363016	
B	0.39239225	0.00019182	-0.00065383	
B	0.49045244	0.17335894	0.11363621	
B	0.39239227	0.34651661	-0.00065422	
B	0.49045244	0.51968285	0.11363777	
B	0.39239227	0.69284000	-0.00065470	
B	0.49045244	0.86600594	0.11363852	
B	0.58849214	0.00019179	-0.00065461	
B	0.68660482	0.17335906	0.11362558	
B	0.58849212	0.34651657	-0.00065498	
B	0.68660482	0.51968298	0.11362714	
B	0.58849213	0.69283997	-0.00065548	
B	0.68660483	0.86600606	0.11362786	
B	0.78461433	0.00019143	-0.00066760	
B	0.88272308	0.17335924	0.11361100	
B	0.78461434	0.34651621	-0.00066798	
B	0.88272308	0.51968315	0.11361256	
B	0.78461435	0.69283961	-0.00066849	
B	0.88272303	0.86600624	0.11361326	
K_POINTS {AUTOMATIC}
3 3 1 0 0 0
