&CONTROL
	calculation='relax'
	restart_mode='from_scratch'
	prefix='a-2b2'
	pseudo_dir='/home/ngys/Desktop/pseudo'
	outdir='./tmp'
	tstress=.true.
/ 
&SYSTEM
	ibrav=0,
	celldm(1)=15.28909
	nat=30
	ntyp=1
	ecutwfc=50.0,
	ecutrho=400.0,
	occupations='smearing'
	smearing='gaussian'
	degauss=0.01
	vdw_corr='DFT-D3'
/ 
&ELECTRONS
	conv_thr=1.d-8
	mixing_beta=0.4
/ 
&IONS
	ion_dynamics='bfgs' ,
/ 
ATOMIC_SPECIES
B	10.811	B.pbe-n-kjpaw_psl.1.0.0.UPF	
CELL_PARAMETERS (alat)
0.98064899	0.00000000	0.00000000	
0.00000000	1.08137803	0.00000000	
0.00000000	0.00000000	2.47282061	
ATOMIC_POSITIONS {alat}
B	0.00011005	0.00018607	-0.00105904	
B	0.09818444	0.18044860	0.11399191	
B	0.00011006	0.36064663	-0.00105922	
B	0.09818443	0.54090790	0.11399316	
B	0.00011004	0.72110556	-0.00105964	
B	0.09818442	0.90136678	0.11399408	
B	0.19626441	0.00018582	-0.00104874	
B	0.29430694	0.18044886	0.11401060	
B	0.19626441	0.36064637	-0.00104893	
B	0.29430694	0.54090812	0.11401187	
B	0.19626440	0.72110529	-0.00104932	
B	0.29430694	0.90136701	0.11401274	
B	0.39238224	0.00018547	-0.00103293	
B	0.49046370	0.18044899	0.11401990	
B	0.39238225	0.36064598	-0.00103311	
B	0.49046370	0.54090830	0.11402117	
B	0.39238224	0.72110495	-0.00103349	
B	0.49046369	0.90136717	0.11402211	
B	0.58848054	0.00018549	-0.00103403	
B	0.68661718	0.18044878	0.11400802	
B	0.58848055	0.36064602	-0.00103419	
B	0.68661718	0.54090811	0.11400926	
B	0.58848054	0.72110495	-0.00103458	
B	0.68661717	0.90136696	0.11401022	
B	0.78460220	0.00018587	-0.00105041	
B	0.88273458	0.18044856	0.11399024	
B	0.78460221	0.36064642	-0.00105057	
B	0.88273458	0.54090787	0.11399147	
B	0.78460220	0.72110536	-0.00105101	
B	0.88273456	0.90136675	0.11399244	
K_POINTS {AUTOMATIC}
3 3 1 0 0 0
