&CONTROL
	calculation='relax'
	restart_mode='from_scratch'
	prefix='a0b-1'
	pseudo_dir='/home/ngys/Desktop/pseudo'
	outdir='./tmp'
	tstress=.true.
/ 
&SYSTEM
	ibrav=0,
	celldm(1)=15.28909
	nat=30
	ntyp=1
	ecutwfc=50.0,
	ecutrho=400.0,
	occupations='smearing'
	smearing='gaussian'
	degauss=0.01
	vdw_corr='DFT-D3'
/ 
&ELECTRONS
	conv_thr=1.d-8
	mixing_beta=0.4
/ 
&IONS
	ion_dynamics='bfgs' ,
/ 
ATOMIC_SPECIES
B	10.811	B.pbe-n-kjpaw_psl.1.0.0.UPF	
CELL_PARAMETERS (alat)
1.00066224	0.00000000	0.00000000	
0.00000000	1.04957279	0.00000000	
0.00000000	0.00000000	2.47282061	
ATOMIC_POSITIONS {alat}
B	0.00002140	0.00007177	0.00011349	
B	0.10029333	0.17524494	0.11284727	
B	0.00002102	0.34993626	0.00011120	
B	0.10029353	0.52510533	0.11284728	
B	0.00002182	0.69979371	0.00011351	
B	0.10029338	0.87496011	0.11284554	
B	0.20015230	0.00007104	0.00011492	
B	0.30042561	0.17524471	0.11284641	
B	0.20015234	0.34993637	0.00011186	
B	0.30042531	0.52510570	0.11284613	
B	0.20015210	0.69979419	0.00011544	
B	0.30042555	0.87495993	0.11284376	
B	0.40028566	0.00007079	0.00011547	
B	0.50055966	0.17524507	0.11284680	
B	0.40028560	0.34993637	0.00011238	
B	0.50055990	0.52510564	0.11284622	
B	0.40028585	0.69979436	0.00011616	
B	0.50055964	0.87495986	0.11284410	
B	0.60042007	0.00007120	0.00011389	
B	0.70069416	0.17524560	0.11284797	
B	0.60042040	0.34993654	0.00011158	
B	0.70069397	0.52510498	0.11284730	
B	0.60042001	0.69979377	0.00011499	
B	0.70069346	0.87496017	0.11284646	
B	0.80055351	0.00007218	0.00011269	
B	0.90082532	0.17524545	0.11284797	
B	0.80055351	0.34993646	0.00011112	
B	0.90082532	0.52510456	0.11284800	
B	0.80055308	0.69979321	0.00011284	
B	0.90082587	0.87496043	0.11284725	
K_POINTS {AUTOMATIC}
3 3 1 0 0 0
