&CONTROL
	calculation='relax'
	restart_mode='from_scratch'
	prefix='a0b-2'
	pseudo_dir='/home/ngys/Desktop/pseudo'
	outdir='./tmp'
	tstress=.true.
/ 
&SYSTEM
	ibrav=0,
	celldm(1)=15.28909
	nat=30
	ntyp=1
	ecutwfc=50.0,
	ecutrho=400.0,
	occupations='smearing'
	smearing='gaussian'
	degauss=0.01
	vdw_corr='DFT-D3'
/ 
&ELECTRONS
	conv_thr=1.d-8
	mixing_beta=0.4
/ 
&IONS
	ion_dynamics='bfgs' ,
/ 
ATOMIC_SPECIES
B	10.811	B.pbe-n-kjpaw_psl.1.0.0.UPF	
CELL_PARAMETERS (alat)
1.00066224	0.00000000	0.00000000	
0.00000000	1.03897104	0.00000000	
0.00000000	0.00000000	2.47282061	
ATOMIC_POSITIONS {alat}
B	0.00011334	0.00018078	-0.00016580	
B	0.10020320	0.17336978	0.11312498	
B	0.00011335	0.34650597	-0.00016614	
B	0.10020319	0.51969353	0.11312653	
B	0.00011334	0.69282925	-0.00016670	
B	0.10020319	0.86601656	0.11312718	
B	0.20024575	0.00018078	-0.00016581	
B	0.30033558	0.17336977	0.11312508	
B	0.20024575	0.34650598	-0.00016623	
B	0.30033557	0.51969351	0.11312662	
B	0.20024574	0.69282924	-0.00016671	
B	0.30033557	0.86601656	0.11312721	
B	0.40037814	0.00018077	-0.00016589	
B	0.50046797	0.17336979	0.11312513	
B	0.40037814	0.34650597	-0.00016633	
B	0.50046797	0.51969351	0.11312666	
B	0.40037814	0.69282925	-0.00016678	
B	0.50046796	0.86601656	0.11312727	
B	0.60051053	0.00018079	-0.00016593	
B	0.70060039	0.17336980	0.11312507	
B	0.60051052	0.34650596	-0.00016630	
B	0.70060039	0.51969351	0.11312658	
B	0.60051054	0.69282924	-0.00016681	
B	0.70060041	0.86601656	0.11312727	
B	0.80064304	0.00018079	-0.00016588	
B	0.90073296	0.17336979	0.11312497	
B	0.80064303	0.34650597	-0.00016619	
B	0.90073296	0.51969351	0.11312651	
B	0.80064304	0.69282923	-0.00016677	
B	0.90073295	0.86601656	0.11312722	
K_POINTS {AUTOMATIC}
3 3 1 0 0 0
