&control 
	calculation='relax'
	restart_mode='from_scratch'
	prefix='trigonal'
	pseudo_dir='/home/ngys/Desktop/pseudo'
	outdir='./tmp'
	tstress=.true.
/
&system
	ibrav=0,
	celldm(1)=15.28909
	nat=30
	ntyp=1,
	ecutwfc= 50.0,
	ecutrho= 400.0,
	occupations = 'smearing'
	smearing = 'gaussian'
	degauss = 0.01
	vdw_corr='DFT-D3'
/
&electrons
	conv_thr=1.d-8
	mixing_beta=0.4
/	
&ions
	ion_dynamics = 'bfgs' ,
/
ATOMIC_SPECIES 
B 10.811 B.pbe-n-kjpaw_psl.1.0.0.UPF

CELL_PARAMETERS (alat= 15.28397262)
   1.000662235   0.000000000   0.000000000
   0.000000000   1.060174535   0.000000000
   0.000000000   0.000000000   2.472820610

ATOMIC_POSITIONS (alat)
B             0.0001713692        0.0002658625        0.0010542189
B             0.1001450315        0.1768269598        0.1119045492
B             0.0001714061        0.3536572601        0.0010536570
B             0.1001450143        0.5302199926        0.1119066323
B             0.0001713618        0.7070484187        0.0010531893
B             0.1001449862        0.8836099419        0.1119077682
B             0.2003038262        0.0002658452        0.0010542648
B             0.3002774610        0.1768269519        0.1119045008
B             0.2003038470        0.3536572650        0.0010536500
B             0.3002774625        0.5302200043        0.1119065733
B             0.2003038250        0.7070484405        0.0010532466
B             0.3002774464        0.8836099323        0.1119076894
B             0.4004362750        0.0002658406        0.0010543155
B             0.5004099231        0.1768269545        0.1119044440
B             0.4004362818        0.3536572650        0.0010537104
B             0.5004099046        0.5302199931        0.1119065126
B             0.4004362728        0.7070484403        0.0010533174
B             0.5004099153        0.8836099265        0.1119076612
B             0.6005687410        0.0002658575        0.0010542940
B             0.7005423393        0.1768269707        0.1119044534
B             0.6005687261        0.3536572661        0.0010537455
B             0.7005423482        0.5302199741        0.1119065065
B             0.6005687355        0.7070484163        0.0010533050
B             0.7005423551        0.8836099291        0.1119077073
B             0.8007011389        0.0002658696        0.0010542441
B             0.9006747858        0.1768269750        0.1119045104
B             0.8007011540        0.3536572612        0.0010537347
B             0.9006747910        0.5302199710        0.1119065868
B             0.8007011641        0.7070484063        0.0010532288
B             0.9006747622        0.8836099364        0.1119077828

K_POINTS {automatic}
3 3 1 0 0 0	

