&CONTROL
	calculation='relax'
	restart_mode='from_scratch'
	prefix='a0b1'
	pseudo_dir='/home/ngys/Desktop/pseudo'
	outdir='./tmp'
	tstress=.true.
/ 
&SYSTEM
	ibrav=0,
	celldm(1)=15.28909
	nat=30
	ntyp=1
	ecutwfc=50.0,
	ecutrho=400.0,
	occupations='smearing'
	smearing='gaussian'
	degauss=0.01
	vdw_corr='DFT-D3'
/ 
&ELECTRONS
	conv_thr=1.d-8
	mixing_beta=0.4
/ 
&IONS
	ion_dynamics='bfgs' ,
/ 
ATOMIC_SPECIES
B	10.811	B.pbe-n-kjpaw_psl.1.0.0.UPF	
CELL_PARAMETERS (alat)
1.00066224	0.00000000	0.00000000	
0.00000000	1.07077628	0.00000000	
0.00000000	0.00000000	2.47282061	
ATOMIC_POSITIONS {alat}
B	0.00012291	0.00019443	0.00460355	
B	0.10019331	0.17866937	0.10835532	
B	0.00012290	0.35712059	0.00460360	
B	0.10019334	0.53559468	0.10835706	
B	0.00012294	0.71404577	0.00460245	
B	0.10019334	0.89251986	0.10835796	
B	0.20025559	0.00019443	0.00460356	
B	0.30032599	0.17866938	0.10835543	
B	0.20025560	0.35712060	0.00460359	
B	0.30032599	0.53559468	0.10835719	
B	0.20025561	0.71404577	0.00460246	
B	0.30032598	0.89251986	0.10835809	
B	0.40038814	0.00019443	0.00460332	
B	0.50045840	0.17866938	0.10835571	
B	0.40038816	0.35712060	0.00460335	
B	0.50045837	0.53559467	0.10835743	
B	0.40038812	0.71404576	0.00460222	
B	0.50045836	0.89251986	0.10835835	
B	0.60052041	0.00019442	0.00460311	
B	0.70059058	0.17866937	0.10835574	
B	0.60052041	0.35712059	0.00460313	
B	0.70059056	0.53559468	0.10835744	
B	0.60052038	0.71404576	0.00460204	
B	0.70059057	0.89251986	0.10835836	
B	0.80065264	0.00019443	0.00460329	
B	0.90072292	0.17866938	0.10835544	
B	0.80065263	0.35712059	0.00460333	
B	0.90072294	0.53559467	0.10835717	
B	0.80065264	0.71404577	0.00460220	
B	0.90072294	0.89251986	0.10835811	
K_POINTS {AUTOMATIC}
3 3 1 0 0 0
