&CONTROL
	calculation='relax'
	restart_mode='from_scratch'
	prefix='a0b2'
	pseudo_dir='/home/ngys/Desktop/pseudo'
	outdir='./tmp'
	tstress=.true.
/ 
&SYSTEM
	ibrav=0,
	celldm(1)=15.28909
	nat=30
	ntyp=1
	ecutwfc=50.0,
	ecutrho=400.0,
	occupations='smearing'
	smearing='gaussian'
	degauss=0.01
	vdw_corr='DFT-D3'
/ 
&ELECTRONS
	conv_thr=1.d-8
	mixing_beta=0.4
/ 
&IONS
	ion_dynamics='bfgs' ,
/ 
ATOMIC_SPECIES
B	10.811	B.pbe-n-kjpaw_psl.1.0.0.UPF	
CELL_PARAMETERS (alat)
1.00066224	0.00000000	0.00000000	
0.00000000	1.08137803	0.00000000	
0.00000000	0.00000000	2.47282061	
ATOMIC_POSITIONS {alat}
B	0.00009902	0.00015490	0.00458319	
B	0.10021731	0.18048006	0.10837640	
B	0.00009902	0.36061471	0.00458305	
B	0.10021726	0.54093806	0.10837699	
B	0.00009901	0.72107449	0.00458278	
B	0.10021729	0.90139874	0.10837761	
B	0.20023107	0.00015502	0.00458323	
B	0.30034954	0.18048011	0.10837624	
B	0.20023107	0.36061468	0.00458307	
B	0.30034947	0.54093803	0.10837686	
B	0.20023102	0.72107444	0.00458276	
B	0.30034950	0.90139878	0.10837749	
B	0.40036356	0.00015504	0.00458351	
B	0.50048228	0.18048007	0.10837607	
B	0.40036354	0.36061469	0.00458338	
B	0.50048224	0.54093807	0.10837663	
B	0.40036350	0.72107443	0.00458299	
B	0.50048227	0.90139875	0.10837729	
B	0.60049646	0.00015494	0.00458356	
B	0.70061510	0.18047999	0.10837615	
B	0.60049644	0.36061468	0.00458340	
B	0.70061516	0.54093809	0.10837673	
B	0.60049646	0.72107448	0.00458304	
B	0.70061515	0.90139875	0.10837735	
B	0.80062909	0.00015491	0.00458327	
B	0.90074749	0.18048001	0.10837642	
B	0.80062910	0.36061467	0.00458313	
B	0.90074754	0.54093811	0.10837700	
B	0.80062916	0.72107453	0.00458279	
B	0.90074752	0.90139874	0.10837763	
K_POINTS {AUTOMATIC}
3 3 1 0 0 0
