&CONTROL
	calculation='relax'
	restart_mode='from_scratch'
	prefix='a1b-1'
	pseudo_dir='/home/ngys/Desktop/pseudo'
	outdir='./tmp'
	tstress=.true.
/ 
&SYSTEM
	ibrav=0,
	celldm(1)=15.28909
	nat=30
	ntyp=1
	ecutwfc=50.0,
	ecutrho=400.0,
	occupations='smearing'
	smearing='gaussian'
	degauss=0.01
	vdw_corr='DFT-D3'
/ 
&ELECTRONS
	conv_thr=1.d-8
	mixing_beta=0.4
/ 
&IONS
	ion_dynamics='bfgs' ,
/ 
ATOMIC_SPECIES
B	10.811	B.pbe-n-kjpaw_psl.1.0.0.UPF	
CELL_PARAMETERS (alat)
1.01066886	0.00000000	0.00000000	
0.00000000	1.04957279	0.00000000	
0.00000000	0.00000000	2.47282061	
ATOMIC_POSITIONS {alat}
B	0.00012267	0.00018856	0.00448984	
B	0.10119663	0.17513281	0.10846908	
B	0.00012268	0.35004804	0.00448974	
B	0.10119669	0.52499073	0.10847046	
B	0.00012278	0.69990485	0.00448915	
B	0.10119668	0.87484717	0.10847134	
B	0.20225658	0.00018855	0.00449007	
B	0.30333062	0.17513281	0.10846909	
B	0.20225659	0.35004803	0.00448995	
B	0.30333055	0.52499073	0.10847044	
B	0.20225658	0.69990484	0.00448936	
B	0.30333056	0.87484717	0.10847133	
B	0.40439049	0.00018855	0.00448984	
B	0.50546445	0.17513280	0.10846935	
B	0.40439049	0.35004803	0.00448975	
B	0.50546435	0.52499074	0.10847070	
B	0.40439038	0.69990484	0.00448917	
B	0.50546436	0.87484715	0.10847157	
B	0.60652420	0.00018856	0.00448962	
B	0.70759805	0.17513279	0.10846944	
B	0.60652421	0.35004804	0.00448953	
B	0.70759807	0.52499076	0.10847081	
B	0.60652415	0.69990484	0.00448893	
B	0.70759806	0.87484716	0.10847167	
B	0.80865781	0.00018856	0.00448961	
B	0.90973166	0.17513279	0.10846937	
B	0.80865782	0.35004803	0.00448952	
B	0.90973178	0.52499074	0.10847074	
B	0.80865790	0.69990484	0.00448890	
B	0.90973175	0.87484716	0.10847161	
K_POINTS {AUTOMATIC}
3 3 1 0 0 0
