&CONTROL
	calculation='relax'
	restart_mode='from_scratch'
	prefix='a1b0'
	pseudo_dir='/home/ngys/Desktop/pseudo'
	outdir='./tmp'
	tstress=.true.
/ 
&SYSTEM
	ibrav=0,
	celldm(1)=15.28909
	nat=30
	ntyp=1
	ecutwfc=50.0,
	ecutrho=400.0,
	occupations='smearing'
	smearing='gaussian'
	degauss=0.01
	vdw_corr='DFT-D3'
/ 
&ELECTRONS
	conv_thr=1.d-8
	mixing_beta=0.4
/ 
&IONS
	ion_dynamics='bfgs' ,
/ 
ATOMIC_SPECIES
B	10.811	B.pbe-n-kjpaw_psl.1.0.0.UPF	
CELL_PARAMETERS (alat)
1.01066886	0.00000000	0.00000000	
0.00000000	1.06017454	0.00000000	
0.00000000	0.00000000	2.47282061	
ATOMIC_POSITIONS {alat}
B	0.00012347	0.00019373	0.00458613	
B	0.10119610	0.17689908	0.10837286	
B	0.00012348	0.35358617	0.00458597	
B	0.10119610	0.53029054	0.10837462	
B	0.00012347	0.70697730	0.00458505	
B	0.10119610	0.88368162	0.10837547	
B	0.20225721	0.00019373	0.00458610	
B	0.30332985	0.17689908	0.10837281	
B	0.20225721	0.35358617	0.00458592	
B	0.30332984	0.53029053	0.10837457	
B	0.20225721	0.70697730	0.00458502	
B	0.30332984	0.88368162	0.10837542	
B	0.40439098	0.00019372	0.00458621	
B	0.50546362	0.17689908	0.10837267	
B	0.40439097	0.35358617	0.00458605	
B	0.50546361	0.53029053	0.10837442	
B	0.40439097	0.70697729	0.00458515	
B	0.50546362	0.88368162	0.10837530	
B	0.60652477	0.00019372	0.00458629	
B	0.70759743	0.17689908	0.10837265	
B	0.60652477	0.35358617	0.00458615	
B	0.70759742	0.53029053	0.10837439	
B	0.60652476	0.70697729	0.00458525	
B	0.70759742	0.88368161	0.10837529	
B	0.80865856	0.00019372	0.00458624	
B	0.90973121	0.17689908	0.10837276	
B	0.80865857	0.35358617	0.00458611	
B	0.90973122	0.53029054	0.10837450	
B	0.80865856	0.70697729	0.00458519	
B	0.90973121	0.88368162	0.10837539	
K_POINTS {AUTOMATIC}
3 3 1 0 0 0
