&CONTROL
	calculation='relax'
	restart_mode='from_scratch'
	prefix='a1b1'
	pseudo_dir='/home/ngys/Desktop/pseudo'
	outdir='./tmp'
	tstress=.true.
/ 
&SYSTEM
	ibrav=0,
	celldm(1)=15.28909
	nat=30
	ntyp=1
	ecutwfc=50.0,
	ecutrho=400.0,
	occupations='smearing'
	smearing='gaussian'
	degauss=0.01
	vdw_corr='DFT-D3'
/ 
&ELECTRONS
	conv_thr=1.d-8
	mixing_beta=0.4
/ 
&IONS
	ion_dynamics='bfgs' ,
/ 
ATOMIC_SPECIES
B	10.811	B.pbe-n-kjpaw_psl.1.0.0.UPF	
CELL_PARAMETERS (alat)
1.01066886	0.00000000	0.00000000	
0.00000000	1.07077628	0.00000000	
0.00000000	0.00000000	2.47282061	
ATOMIC_POSITIONS {alat}
B	0.00012241	0.00019552	0.00470046	
B	0.10119713	0.17866816	0.10825845	
B	0.00012240	0.35712192	0.00470041	
B	0.10119712	0.53559357	0.10826008	
B	0.00012240	0.71404698	0.00469958	
B	0.10119713	0.89251855	0.10826106	
B	0.20225616	0.00019552	0.00470045	
B	0.30333090	0.17866816	0.10825840	
B	0.20225616	0.35712193	0.00470040	
B	0.30333089	0.53559357	0.10826004	
B	0.20225616	0.71404698	0.00469959	
B	0.30333089	0.89251855	0.10826100	
B	0.40438994	0.00019552	0.00470051	
B	0.50546469	0.17866816	0.10825835	
B	0.40438995	0.35712193	0.00470045	
B	0.50546469	0.53559357	0.10825998	
B	0.40438994	0.71404698	0.00469965	
B	0.50546467	0.89251855	0.10826096	
B	0.60652374	0.00019552	0.00470055	
B	0.70759848	0.17866816	0.10825834	
B	0.60652375	0.35712192	0.00470051	
B	0.70759848	0.53559357	0.10825995	
B	0.60652374	0.71404698	0.00469970	
B	0.70759847	0.89251855	0.10826095	
B	0.80865752	0.00019552	0.00470054	
B	0.90973225	0.17866816	0.10825841	
B	0.80865752	0.35712192	0.00470050	
B	0.90973224	0.53559357	0.10826004	
B	0.80865752	0.71404698	0.00469967	
B	0.90973225	0.89251855	0.10826102	
K_POINTS {AUTOMATIC}
3 3 1 0 0 0
