&CONTROL
	calculation='relax'
	restart_mode='from_scratch'
	prefix='a2b-2'
	pseudo_dir='/home/ngys/Desktop/pseudo'
	outdir='./tmp'
	tstress=.true.
/ 
&SYSTEM
	ibrav=0,
	celldm(1)=15.28909
	nat=30
	ntyp=1
	ecutwfc=50.0,
	ecutrho=400.0,
	occupations='smearing'
	smearing='gaussian'
	degauss=0.01
	vdw_corr='DFT-D3'
/ 
&ELECTRONS
	conv_thr=1.d-8
	mixing_beta=0.4
/ 
&IONS
	ion_dynamics='bfgs' ,
/ 
ATOMIC_SPECIES
B	10.811	B.pbe-n-kjpaw_psl.1.0.0.UPF	
CELL_PARAMETERS (alat)
1.02067548	0.00000000	0.00000000	
0.00000000	1.03897104	0.00000000	
0.00000000	0.00000000	2.47282061	
ATOMIC_POSITIONS {alat}
B	0.00012454	0.00018967	0.00442915	
B	0.10219819	0.17336095	0.10852970	
B	0.00012455	0.34651451	0.00442894	
B	0.10219821	0.51968489	0.10853175	
B	0.00012453	0.69283792	0.00442780	
B	0.10219819	0.86600792	0.10853267	
B	0.20425962	0.00018968	0.00442920	
B	0.30633328	0.17336095	0.10852961	
B	0.20425965	0.34651451	0.00442894	
B	0.30633331	0.51968487	0.10853169	
B	0.20425967	0.69283791	0.00442784	
B	0.30633330	0.86600794	0.10853257	
B	0.40839472	0.00018969	0.00442931	
B	0.51046837	0.17336095	0.10852952	
B	0.40839473	0.34651450	0.00442904	
B	0.51046837	0.51968486	0.10853161	
B	0.40839474	0.69283791	0.00442791	
B	0.51046837	0.86600794	0.10853251	
B	0.61252982	0.00018969	0.00442933	
B	0.71460348	0.17336094	0.10852954	
B	0.61252981	0.34651450	0.00442911	
B	0.71460344	0.51968487	0.10853162	
B	0.61252979	0.69283791	0.00442793	
B	0.71460345	0.86600794	0.10853257	
B	0.81666492	0.00018968	0.00442923	
B	0.91873858	0.17336094	0.10852964	
B	0.81666491	0.34651451	0.00442905	
B	0.91873856	0.51968489	0.10853170	
B	0.81666487	0.69283792	0.00442786	
B	0.91873855	0.86600793	0.10853266	
K_POINTS {AUTOMATIC}
3 3 1 0 0 0
