&CONTROL
	calculation='relax'
	restart_mode='from_scratch'
	prefix='a2b0'
	pseudo_dir='/home/ngys/Desktop/pseudo'
	outdir='./tmp'
	tstress=.true.
/ 
&SYSTEM
	ibrav=0,
	celldm(1)=15.28909
	nat=30
	ntyp=1
	ecutwfc=50.0,
	ecutrho=400.0,
	occupations='smearing'
	smearing='gaussian'
	degauss=0.01
	vdw_corr='DFT-D3'
/ 
&ELECTRONS
	conv_thr=1.d-8
	mixing_beta=0.4
/ 
&IONS
	ion_dynamics='bfgs' ,
/ 
ATOMIC_SPECIES
B	10.811	B.pbe-n-kjpaw_psl.1.0.0.UPF	
CELL_PARAMETERS (alat)
1.02067548	0.00000000	0.00000000	
0.00000000	1.06017454	0.00000000	
0.00000000	0.00000000	2.47282061	
ATOMIC_POSITIONS {alat}
B	0.00012007	0.00019120	0.00476602	
B	0.10220293	0.17690075	0.10819309	
B	0.00012008	0.35358305	0.00476479	
B	0.10220297	0.53029301	0.10819580	
B	0.00012011	0.70697558	0.00476401	
B	0.10220296	0.88368484	0.10819570	
B	0.20425510	0.00019116	0.00476660	
B	0.30633788	0.17690071	0.10819269	
B	0.20425513	0.35358303	0.00476506	
B	0.30633791	0.53029303	0.10819554	
B	0.20425514	0.70697563	0.00476442	
B	0.30633789	0.88368483	0.10819523	
B	0.40839002	0.00019115	0.00476678	
B	0.51047285	0.17690073	0.10819279	
B	0.40839003	0.35358306	0.00476520	
B	0.51047283	0.53029303	0.10819559	
B	0.40839001	0.70697561	0.00476461	
B	0.51047281	0.88368483	0.10819536	
B	0.61252507	0.00019118	0.00476635	
B	0.71460800	0.17690079	0.10819324	
B	0.61252505	0.35358304	0.00476500	
B	0.71460797	0.53029300	0.10819582	
B	0.61252502	0.70697561	0.00476432	
B	0.71460797	0.88368482	0.10819590	
B	0.81666032	0.00019121	0.00476587	
B	0.91874326	0.17690080	0.10819342	
B	0.81666029	0.35358307	0.00476477	
B	0.91874328	0.53029298	0.10819596	
B	0.81666029	0.70697556	0.00476397	
B	0.91874327	0.88368483	0.10819611	
K_POINTS {AUTOMATIC}
3 3 1 0 0 0
