&CONTROL
	calculation='relax'
	restart_mode='from_scratch'
	prefix='a2b2'
	pseudo_dir='/home/ngys/Desktop/pseudo'
	outdir='./tmp'
	tstress=.true.
/ 
&SYSTEM
	ibrav=0,
	celldm(1)=15.28909
	nat=30
	ntyp=1
	ecutwfc=50.0,
	ecutrho=400.0,
	occupations='smearing'
	smearing='gaussian'
	degauss=0.01
	vdw_corr='DFT-D3'
/ 
&ELECTRONS
	conv_thr=1.d-8
	mixing_beta=0.4
/ 
&IONS
	ion_dynamics='bfgs' ,
/ 
ATOMIC_SPECIES
B	10.811	B.pbe-n-kjpaw_psl.1.0.0.UPF	
CELL_PARAMETERS (alat)
1.02067548	0.00000000	0.00000000	
0.00000000	1.08137803	0.00000000	
0.00000000	0.00000000	2.47282061	
ATOMIC_POSITIONS {alat}
B	0.00011398	0.00019326	0.00497068	
B	0.10220871	0.18044105	0.10798872	
B	0.00011437	0.36065324	0.00497016	
B	0.10220863	0.54090052	0.10799005	
B	0.00011404	0.72111294	0.00497003	
B	0.10220828	0.90135994	0.10799051	
B	0.20424924	0.00019334	0.00497083	
B	0.30634380	0.18044106	0.10798861	
B	0.20424944	0.36065326	0.00496995	
B	0.30634358	0.54090051	0.10798978	
B	0.20424907	0.72111292	0.00497022	
B	0.30634363	0.90135995	0.10799004	
B	0.40838451	0.00019331	0.00497115	
B	0.51047869	0.18044102	0.10798823	
B	0.40838426	0.36065327	0.00497034	
B	0.51047863	0.54090050	0.10798928	
B	0.40838435	0.72111296	0.00497076	
B	0.51047901	0.90135999	0.10798976	
B	0.61251955	0.00019331	0.00497120	
B	0.71461367	0.18044103	0.10798811	
B	0.61251921	0.36065323	0.00497081	
B	0.71461384	0.54090051	0.10798919	
B	0.61251964	0.72111297	0.00497085	
B	0.71461403	0.90135996	0.10799012	
B	0.81665444	0.00019329	0.00497089	
B	0.91874889	0.18044100	0.10798842	
B	0.81665449	0.36065321	0.00497070	
B	0.91874905	0.54090050	0.10798972	
B	0.81665466	0.72111294	0.00497033	
B	0.91874879	0.90135995	0.10799059	
K_POINTS {AUTOMATIC}
3 3 1 0 0 0
