&control 
    	calculation='relax'
    	restart_mode='from_scratch'
    	prefix='b12'
    	pseudo_dir='/home/ngys/Desktop/pseudo'
    	outdir='./tmp'
    	tstress=.true.
    /
    &system
    	ibrav=0,
    	celldm(1)=9.6,
    	nat=30
	ntyp=1
	ecutwfc= 50.0,
    	ecutrho= 400.0,
    	occupations = 'smearing'
    	smearing = 'm-v'
    	degauss = 0.01
vdw_corr = 'dft-d3'
    /
    &electrons
    	conv_thr=1.d-8
    	mixing_beta=0.4
    /	
    &ions
    	ion_dynamics = 'bfgs' ,
    /
    &cell
    	cell_dynamics='bfgs'
    	cell_dofree='2Dxy'
    /
 ATOMIC_SPECIES 
    B 10.811 B.pbe-n-kjpaw_psl.1.0.0.UPF
 H 1.01 H.pbe-kjpaw_psl.1.0.0.UPF
    CELL_PARAMETERS (alat=  9.60000000)
1.99756 0.00002 0.     
0.00002 1.73032 0.     
0. 0. 5.
    
    ATOMIC_POSITIONS (alat)
B            -0.0055352035       -0.0018962698       -0.0053955599
B             0.3320948489       -0.0018634388       -0.0047343009
B             0.6697371717       -0.0018531450       -0.0008895186
B             0.1579805785        0.2864964163       -0.0095805243
B             0.5061833409        0.2865163740       -0.0032003273
B            -0.0055300059        0.5749021750       -0.0080264955
B             0.3321230627        0.5748931896       -0.0069633614
B             0.6697501640        0.5748748433       -0.0017240771
B             0.1579203798        0.8633167689       -0.0056122784
B             0.5063160541        0.8632929293       -0.0079003719
B            -0.0056443072        1.1516433685       -0.0003880526
B             0.3321755006        1.1516540471       -0.0052473294
B             0.6699594203        1.1516643202       -0.0094449069
B             0.1579381525        1.4399835323       -0.0034789394
B             0.5063030933        1.4400288410       -0.0064159616
B             0.9929533673       -0.0018821692        0.0041567808
B             1.3308368145       -0.0019384683        0.0030684566
B             1.6687670240       -0.0018272974       -0.0006876421
B             1.1567145465        0.2865413385        0.0073778416
B             1.5050451532        0.2865352334        0.0000399862
B             0.9929555318        0.5749553335        0.0035846296
B             1.3308472669        0.5750115259        0.0029086661
B             1.6687793447        0.5748939341       -0.0021005279
B             1.1566212171        0.8633738037       -0.0002119554
B             1.5050488320        0.8632700555        0.0042757649
B             0.9932190662        1.1517007229       -0.0068764281
B             1.3309734379        1.1516829331        0.0006435568
B             1.6687198784        1.1516888423        0.0053067324
B             1.1566470465        1.4400057489       -0.0003940914
B             1.5050418658        1.4400962419        0.0045054921
K_POINTS {automatic}
    3 3 1 0 0 0	
    
    
    
