&CONTROL
	calculation='relax'
	restart_mode='from_scratch'
	prefix='a-1b1'
	pseudo_dir='/home/ngys/Desktop/pseudo'
	outdir='./tmp'
	tstress=.true.
/ 
&SYSTEM
	ibrav=0,
	celldm(1)=9.6,
	nat=30
	ntyp=1
	ecutwfc=50.0,
	ecutrho=400.0,
	occupations='smearing'
	smearing='m-v'
	degauss=0.01
	vdw_corr='dft-d3'
/ 
&ELECTRONS
	conv_thr=1.d-8
	mixing_beta=0.4
/ 
&IONS
	ion_dynamics='bfgs' ,
/ 
&CELL
	cell_dynamics='bfgs'
	cell_dofree='2Dxy'
/ 
ATOMIC_SPECIES
B	10.811	B.pbe-n-kjpaw_psl.1.0.0.UPF	
H	1.01	H.pbe-kjpaw_psl.1.0.0.UPF	
CELL_PARAMETERS (alat)
1.97758440	0.00001980	0.00000000	
0.00002020	1.74762320	0.00000000	
0.00000000	0.00000000	5.00000000	
ATOMIC_POSITIONS {alat}
B	-0.00518551	-0.00191146	-0.00542743	
B	0.32882176	-0.00190315	-0.00477665	
B	0.66275610	-0.00189429	-0.00089236	
B	0.15572537	0.28935417	-0.00949072	
B	0.50187220	0.28937196	-0.00319962	
B	-0.00518440	0.58065124	-0.00793318	
B	0.32883947	0.58065523	-0.00689617	
B	0.66276542	0.58064717	-0.00177742	
B	0.15573281	0.87192515	-0.00563057	
B	0.50195560	0.87192103	-0.00782395	
B	-0.00516320	1.16316843	-0.00030823	
B	0.32888112	1.16318286	-0.00531677	
B	0.66288260	1.16318785	-0.00946801	
B	0.15574576	1.45441115	-0.00349566	
B	0.50195675	1.45443454	-0.00644443	
B	0.98346901	-0.00188245	0.00408443	
B	1.31750117	-0.00187435	0.00301279	
B	1.65156590	-0.00187063	-0.00063509	
B	1.14441889	0.28939941	0.00719297	
B	1.49061274	0.28939495	0.00011035	
B	0.98347295	0.58068646	0.00356835	
B	1.31751008	0.58067806	0.00284487	
B	1.65157284	0.58066876	-0.00203885	
B	1.14441861	0.87193457	-0.00011262	
B	1.49065759	0.87191963	0.00406114	
B	0.98363346	1.16321937	-0.00667546	
B	1.31757643	1.16320880	0.00071931	
B	1.65159218	1.16320237	0.00528615	
B	1.14443167	1.45447620	-0.00027548	
B	1.49065785	1.45447634	0.00433357	
K_POINTS {AUTOMATIC}
3 3 1 0 0 0
