&CONTROL
	calculation='relax'
	restart_mode='from_scratch'
	prefix='a-1b2'
	pseudo_dir='/home/ngys/Desktop/pseudo'
	outdir='./tmp'
	tstress=.true.
/ 
&SYSTEM
	ibrav=0,
	celldm(1)=9.6,
	nat=30
	ntyp=1
	ecutwfc=50.0,
	ecutrho=400.0,
	occupations='smearing'
	smearing='m-v'
	degauss=0.01
	vdw_corr='dft-d3'
/ 
&ELECTRONS
	conv_thr=1.d-8
	mixing_beta=0.4
/ 
&IONS
	ion_dynamics='bfgs' ,
/ 
&CELL
	cell_dynamics='bfgs'
	cell_dofree='2Dxy'
/ 
ATOMIC_SPECIES
B	10.811	B.pbe-n-kjpaw_psl.1.0.0.UPF	
H	1.01	H.pbe-kjpaw_psl.1.0.0.UPF	
CELL_PARAMETERS (alat)
1.97758440	0.00001980	0.00000000	
0.00002040	1.76492640	0.00000000	
0.00000000	0.00000000	5.00000000	
ATOMIC_POSITIONS {alat}
B	-0.00506684	-0.00192511	-0.00540879	
B	0.32885813	-0.00191627	-0.00485775	
B	0.66266311	-0.00192548	-0.00097668	
B	0.15575021	0.29221513	-0.00920412	
B	0.50193010	0.29223155	-0.00329144	
B	-0.00506857	0.58639948	-0.00769702	
B	0.32886680	0.58639323	-0.00676490	
B	0.66266894	0.58641006	-0.00188661	
B	0.15578798	0.88053915	-0.00563867	
B	0.50198641	0.88053936	-0.00767569	
B	-0.00497840	1.17469295	-0.00027020	
B	0.32891401	1.17470637	-0.00540995	
B	0.66272991	1.17470814	-0.00935691	
B	0.15580210	1.46883359	-0.00359778	
B	0.50199667	1.46884926	-0.00644600	
B	0.98366326	-0.00188950	0.00388933	
B	1.31746826	-0.00186171	0.00291039	
B	1.65133849	-0.00189795	-0.00056224	
B	1.14438150	0.29225956	0.00673315	
B	1.49054534	0.29225467	0.00031763	
B	0.98366544	0.58642663	0.00345205	
B	1.31747562	0.58639442	0.00273850	
B	1.65134195	0.58642741	-0.00192186	
B	1.14443046	0.88055987	0.00009362	
B	1.49060262	0.88055909	0.00369543	
B	0.98376509	1.17473653	-0.00619877	
B	1.31750827	1.17473141	0.00086048	
B	1.65141991	1.17471933	0.00508115	
B	1.14443895	1.46888004	-0.00003573	
B	1.49060751	1.46886574	0.00402461	
K_POINTS {AUTOMATIC}
3 3 1 0 0 0
