&CONTROL
	calculation='relax'
	restart_mode='from_scratch'
	prefix='a-1b0'
	pseudo_dir='/home/ngys/Desktop/pseudo'
	outdir='./tmp'
	tstress=.true.
/ 
&SYSTEM
	ibrav=0,
	celldm(1)=9.6,
	nat=30
	ntyp=1
	ecutwfc=50.0,
	ecutrho=400.0,
	occupations='smearing'
	smearing='m-v'
	degauss=0.01
	vdw_corr='dft-d3'
/ 
&ELECTRONS
	conv_thr=1.d-8
	mixing_beta=0.4
/ 
&IONS
	ion_dynamics='bfgs' ,
/ 
&CELL
	cell_dynamics='bfgs'
	cell_dofree='2Dxy'
/ 
ATOMIC_SPECIES
B	10.811	B.pbe-n-kjpaw_psl.1.0.0.UPF	
H	1.01	H.pbe-kjpaw_psl.1.0.0.UPF	
CELL_PARAMETERS (alat)
1.97758440	0.00001980	0.00000000	
0.00002000	1.73032000	0.00000000	
0.00000000	0.00000000	5.00000000	
ATOMIC_POSITIONS {alat}
B	-0.00550162	-0.00189361	-0.00544877	
B	0.32882929	-0.00188519	-0.00476914	
B	0.66306928	-0.00188333	-0.00086033	
B	0.15560487	0.28649070	-0.00954221	
B	0.50200831	0.28650824	-0.00316280	
B	-0.00550187	0.57489834	-0.00794627	
B	0.32884529	0.57490432	-0.00688992	
B	0.66307797	0.57490159	-0.00175827	
B	0.15562105	0.86329041	-0.00563064	
B	0.50208799	0.86328665	-0.00784467	
B	-0.00546449	1.15165063	-0.00026012	
B	0.32888844	1.15166829	-0.00532901	
B	0.66317594	1.15167050	-0.00951546	
B	0.15563381	1.44002181	-0.00347140	
B	0.50209162	1.44004213	-0.00647380	
B	0.98318248	-0.00185990	0.00409470	
B	1.31749512	-0.00184031	0.00300862	
B	1.65184966	-0.00186129	-0.00063512	
B	1.14428578	0.28653496	0.00723857	
B	1.49072029	0.28653128	0.00008549	
B	0.98318599	0.57492752	0.00358423	
B	1.31750307	0.57491178	0.00283170	
B	1.65185508	0.57492191	-0.00204991	
B	1.14430425	0.86330039	-0.00011904	
B	1.49077090	0.86328766	0.00405843	
B	0.98333638	1.15169972	-0.00669829	
B	1.31755490	1.15169345	0.00071408	
B	1.65189582	1.15168156	0.00532737	
B	1.14431568	1.44008188	-0.00028438	
B	1.49077192	1.44007963	0.00434162	
K_POINTS {AUTOMATIC}
3 3 1 0 0 0
