&CONTROL
	calculation='relax'
	restart_mode='from_scratch'
	prefix='b12'
	pseudo_dir='/home/ngys/Desktop/pseudo'
	outdir='./tmp'
	tstress=.true.
/ 
&SYSTEM
	ibrav=0,
	celldm(1)=9.504,
	nat=30
	ntyp=1
	ecutwfc=50.0,
	ecutrho=400.0,
	occupations='smearing'
	smearing='m-v'
	degauss=0.01
	vdw_corr='dft-d3'
/ 
&ELECTRONS
	conv_thr=1.d-8
	mixing_beta=0.4
/ 
&IONS
	ion_dynamics='bfgs' ,
/ 
&CELL
	cell_dynamics='bfgs'
	cell_dofree='2Dxy'
/ 
ATOMIC_SPECIES
B	10.811	B.pbe-n-kjpaw_psl.1.0.0.UPF	
H	1.01	H.pbe-kjpaw_psl.1.0.0.UPF	
CELL_PARAMETERS (alat)
1.99756000	0.00002000	0.00000000	
0.00002000	1.73032000	0.00000000	
0.00000000	0.00000000	5.00000000	
ATOMIC_POSITIONS {alat}
B	-0.00597063	-0.00189639	-0.00544882	
B	0.33213831	-0.00188552	-0.00474366	
B	0.67017667	-0.00187997	-0.00083951	
B	0.15746589	0.28649435	-0.00960975	
B	0.50676895	0.28651164	-0.00315023	
B	-0.00597018	0.57489587	-0.00798903	
B	0.33215718	0.57490569	-0.00691236	
B	0.67018600	0.57489500	-0.00172370	
B	0.15746970	0.86329774	-0.00563253	
B	0.50685832	0.86329075	-0.00788692	
B	-0.00595527	1.15164674	-0.00027168	
B	0.33220015	1.15166574	-0.00530469	
B	0.67030649	1.15166784	-0.00952766	
B	0.15748309	1.44001855	-0.00345402	
B	0.50685902	1.44004124	-0.00647259	
B	0.99266837	-0.00186564	0.00412386	
B	1.33081067	-0.00185229	0.00302763	
B	1.66899459	-0.00185960	-0.00065235	
B	1.15615121	0.28653775	0.00734077	
B	1.50549968	0.28653480	0.00005607	
B	0.99267225	0.57492919	0.00359212	
B	1.33081879	0.57492388	0.00284847	
B	1.66900117	0.57491544	-0.00207954	
B	1.15615071	0.86330707	-0.00015940	
B	1.50554695	0.86328842	0.00414503	
B	0.99283743	1.15169798	-0.00679159	
B	1.33088960	1.15169175	0.00067528	
B	1.66901667	1.15167973	0.00535917	
B	1.15616457	1.44007993	-0.00033603	
B	1.50554630	1.44008406	0.00441290	
K_POINTS {AUTOMATIC}
3 3 1 0 0 0
