&CONTROL
	calculation='relax'
	restart_mode='from_scratch'
	prefix='a-1b-2'
	pseudo_dir='/home/ngys/Desktop/pseudo'
	outdir='./tmp'
	tstress=.true.
/ 
&SYSTEM
	ibrav=0,
	celldm(1)=9.6,
	nat=30
	ntyp=1
	ecutwfc=50.0,
	ecutrho=400.0,
	occupations='smearing'
	smearing='m-v'
	degauss=0.01
	vdw_corr='dft-d3'
/ 
&ELECTRONS
	conv_thr=1.d-8
	mixing_beta=0.4
/ 
&IONS
	ion_dynamics='bfgs' ,
/ 
&CELL
	cell_dynamics='bfgs'
	cell_dofree='2Dxy'
/ 
ATOMIC_SPECIES
B	10.811	B.pbe-n-kjpaw_psl.1.0.0.UPF	
H	1.01	H.pbe-kjpaw_psl.1.0.0.UPF	
CELL_PARAMETERS (alat)
1.97758440	0.00001980	0.00000000	
0.00001960	1.69571360	0.00000000	
0.00000000	0.00000000	5.00000000	
ATOMIC_POSITIONS {alat}
B	-0.00629449	-0.00186055	-0.00545429	
B	0.32881132	-0.00184653	-0.00472351	
B	0.66385396	-0.00184255	-0.00081940	
B	0.15617329	0.28076682	-0.00965986	
B	0.50141137	0.28078380	-0.00314131	
B	-0.00629409	0.56339538	-0.00801375	
B	0.32883151	0.56340721	-0.00692053	
B	0.66386349	0.56339428	-0.00169653	
B	0.15617045	0.84603637	-0.00563998	
B	0.50150554	0.84602669	-0.00791721	
B	-0.00629110	1.12861096	-0.00027097	
B	0.32887463	1.12863191	-0.00529182	
B	0.66399149	1.12863266	-0.00954039	
B	0.15618435	1.41121835	-0.00344264	
B	0.50150494	1.41124196	-0.00647459	
B	0.98234651	-0.00183085	0.00413559	
B	1.31750516	-0.00181988	0.00303523	
B	1.65270933	-0.00182339	-0.00065890	
B	1.14487752	0.28080899	0.00740516	
B	1.49016669	0.28080640	0.00004875	
B	0.98235008	0.56342855	0.00359174	
B	1.31751299	0.56343049	0.00285144	
B	1.65271589	0.56341367	-0.00209669	
B	1.14486934	0.84604787	-0.00017912	
B	1.49021187	0.84602238	0.00419232	
B	0.98252325	1.12866217	-0.00684273	
B	1.31758952	1.12865764	0.00064783	
B	1.65272391	1.12864421	0.00538301	
B	1.14488422	1.41127497	-0.00036404	
B	1.49021027	1.41128653	0.00445243	
K_POINTS {AUTOMATIC}
3 3 1 0 0 0
