&CONTROL
	calculation='relax'
	restart_mode='from_scratch'
	prefix='a-2b0'
	pseudo_dir='/home/ngys/Desktop/pseudo'
	outdir='./tmp'
	tstress=.true.
/ 
&SYSTEM
	ibrav=0,
	celldm(1)=9.6,
	nat=30
	ntyp=1
	ecutwfc=50.0,
	ecutrho=400.0,
	occupations='smearing'
	smearing='m-v'
	degauss=0.01
	vdw_corr='dft-d3'
/ 
&ELECTRONS
	conv_thr=1.d-8
	mixing_beta=0.4
/ 
&IONS
	ion_dynamics='bfgs' ,
/ 
&CELL
	cell_dynamics='bfgs'
	cell_dofree='2Dxy'
/ 
ATOMIC_SPECIES
B	10.811	B.pbe-n-kjpaw_psl.1.0.0.UPF	
H	1.01	H.pbe-kjpaw_psl.1.0.0.UPF	
CELL_PARAMETERS (alat)
1.95760880	0.00001960	0.00000000	
0.00002000	1.73032000	0.00000000	
0.00000000	0.00000000	5.00000000	
ATOMIC_POSITIONS {alat}
B	-0.00536877	-0.00188925	-0.00552087	
B	0.32544025	-0.00188331	-0.00481869	
B	0.65623227	-0.00188849	-0.00086320	
B	0.15313548	0.28649477	-0.00959809	
B	0.49775821	0.28650843	-0.00316412	
B	-0.00536976	0.57490193	-0.00801648	
B	0.32545431	0.57489249	-0.00691351	
B	0.65623938	0.57490078	-0.00177097	
B	0.15315542	0.86329054	-0.00563922	
B	0.49783260	0.86328264	-0.00788274	
B	-0.00530960	1.15165521	-0.00020387	
B	0.32549974	1.15166491	-0.00536420	
B	0.65633276	1.15166782	-0.00964362	
B	0.15316935	1.44003233	-0.00346951	
B	0.49783826	1.44004824	-0.00653520	
B	0.97341067	-0.00186096	0.00417226	
B	1.30423715	-0.00184462	0.00302050	
B	1.63506037	-0.00186200	-0.00062195	
B	1.13192237	0.28653622	0.00727247	
B	1.47655990	0.28653254	0.00009006	
B	0.97341361	0.57492955	0.00368078	
B	1.30424473	0.57490579	0.00285555	
B	1.63506514	0.57492008	-0.00203750	
B	1.13194802	0.86330487	-0.00007692	
B	1.47661140	0.86329436	0.00405372	
B	0.97354807	1.15169947	-0.00671987	
B	1.30429681	1.15168953	0.00076861	
B	1.63511303	1.15168055	0.00544365	
B	1.13195921	1.44008032	-0.00024895	
B	1.47661342	1.44007697	0.00434713	
K_POINTS {AUTOMATIC}
3 3 1 0 0 0
