&CONTROL
	calculation='relax'
	restart_mode='from_scratch'
	prefix='a-2b-1'
	pseudo_dir='/home/ngys/Desktop/pseudo'
	outdir='./tmp'
	tstress=.true.
/ 
&SYSTEM
	ibrav=0,
	celldm(1)=9.6,
	nat=30
	ntyp=1
	ecutwfc=50.0,
	ecutrho=400.0,
	occupations='smearing'
	smearing='m-v'
	degauss=0.01
	vdw_corr='dft-d3'
/ 
&ELECTRONS
	conv_thr=1.d-8
	mixing_beta=0.4
/ 
&IONS
	ion_dynamics='bfgs' ,
/ 
&CELL
	cell_dynamics='bfgs'
	cell_dofree='2Dxy'
/ 
ATOMIC_SPECIES
B	10.811	B.pbe-n-kjpaw_psl.1.0.0.UPF	
H	1.01	H.pbe-kjpaw_psl.1.0.0.UPF	
CELL_PARAMETERS (alat)
1.95760880	0.00001960	0.00000000	
0.00001980	1.71301680	0.00000000	
0.00000000	0.00000000	5.00000000	
ATOMIC_POSITIONS {alat}
B	-0.00561974	-0.00187269	-0.00555146	
B	0.32543824	-0.00186485	-0.00479236	
B	0.65648210	-0.00187494	-0.00081981	
B	0.15305498	0.28363091	-0.00970359	
B	0.49783910	0.28364483	-0.00311211	
B	-0.00562151	0.56915040	-0.00806959	
B	0.32545197	0.56914475	-0.00692296	
B	0.65648894	0.56915255	-0.00173499	
B	0.15307921	0.85465803	-0.00564073	
B	0.49791132	0.85465059	-0.00793846	
B	-0.00555239	1.14013660	-0.00015565	
B	0.32549683	1.14015014	-0.00536190	
B	0.65657486	1.14014948	-0.00971706	
B	0.15309308	1.42563728	-0.00342788	
B	0.49791815	1.42565132	-0.00657175	
B	0.97317462	-0.00184323	0.00421587	
B	1.30423732	-0.00181682	0.00302971	
B	1.63529546	-0.00184847	-0.00063179	
B	1.13184358	0.28367194	0.00739865	
B	1.47663455	0.28366898	0.00004039	
B	0.97317750	0.56917407	0.00371828	
B	1.30424420	0.56914966	0.00285306	
B	1.63529926	0.56917128	-0.00206656	
B	1.13187777	0.85466917	-0.00011063	
B	1.47668930	0.85466347	0.00410689	
B	0.97330718	1.14017927	-0.00680904	
B	1.30429253	1.14017481	0.00073503	
B	1.63535568	1.14016087	0.00552366	
B	1.13188810	1.42568665	-0.00029184	
B	1.47669161	1.42567806	0.00440386	
K_POINTS {AUTOMATIC}
3 3 1 0 0 0
