&CONTROL
	calculation='relax'
	restart_mode='from_scratch'
	prefix='a-2b2'
	pseudo_dir='/home/ngys/Desktop/pseudo'
	outdir='./tmp'
	tstress=.true.
/ 
&SYSTEM
	ibrav=0,
	celldm(1)=9.6,
	nat=30
	ntyp=1
	ecutwfc=50.0,
	ecutrho=400.0,
	occupations='smearing'
	smearing='m-v'
	degauss=0.01
	vdw_corr='dft-d3'
/ 
&ELECTRONS
	conv_thr=1.d-8
	mixing_beta=0.4
/ 
&IONS
	ion_dynamics='bfgs' ,
/ 
&CELL
	cell_dynamics='bfgs'
	cell_dofree='2Dxy'
/ 
ATOMIC_SPECIES
B	10.811	B.pbe-n-kjpaw_psl.1.0.0.UPF	
H	1.01	H.pbe-kjpaw_psl.1.0.0.UPF	
CELL_PARAMETERS (alat)
1.95760880	0.00001960	0.00000000	
0.00002040	1.76492640	0.00000000	
0.00000000	0.00000000	5.00000000	
ATOMIC_POSITIONS {alat}
B	-0.00492440	-0.00192509	-0.00547595	
B	0.32544250	-0.00192365	-0.00484873	
B	0.65578954	-0.00191965	-0.00093843	
B	0.15344421	0.29222246	-0.00942843	
B	0.49745096	0.29223556	-0.00326450	
B	-0.00492442	0.58640522	-0.00792474	
B	0.32545701	0.58639345	-0.00689182	
B	0.65579730	0.58639985	-0.00182777	
B	0.15346314	0.88055587	-0.00565274	
B	0.49752326	0.88054871	-0.00779725	
B	-0.00487375	1.17469163	-0.00029185	
B	0.32550228	1.17469650	-0.00536175	
B	0.65589429	1.17470373	-0.00951436	
B	0.15347660	1.46882312	-0.00354100	
B	0.49752771	1.46884080	-0.00646353	
B	0.97384337	-0.00189503	0.00408934	
B	1.30423842	-0.00189100	0.00300102	
B	1.63462528	-0.00189249	-0.00059857	
B	1.13222883	0.29226492	0.00706705	
B	1.47625764	0.29226020	0.00020558	
B	0.97384667	0.58643587	0.00360538	
B	1.30424756	0.58641248	0.00285166	
B	1.63463151	0.58641963	-0.00198604	
B	1.13224583	0.88056987	-0.00001288	
B	1.47630723	0.88055751	0.00396319	
B	0.97398418	1.17473848	-0.00655560	
B	1.30429885	1.17472122	0.00080749	
B	1.63467545	1.17471795	0.00531240	
B	1.13225737	1.46887512	-0.00017560	
B	1.47630934	1.46887376	0.00424367	
K_POINTS {AUTOMATIC}
3 3 1 0 0 0
