&CONTROL
	calculation='relax'
	restart_mode='from_scratch'
	prefix='a-2b1'
	pseudo_dir='/home/ngys/Desktop/pseudo'
	outdir='./tmp'
	tstress=.true.
/ 
&SYSTEM
	ibrav=0,
	celldm(1)=9.6,
	nat=30
	ntyp=1
	ecutwfc=50.0,
	ecutrho=400.0,
	occupations='smearing'
	smearing='m-v'
	degauss=0.01
	vdw_corr='dft-d3'
/ 
&ELECTRONS
	conv_thr=1.d-8
	mixing_beta=0.4
/ 
&IONS
	ion_dynamics='bfgs' ,
/ 
&CELL
	cell_dynamics='bfgs'
	cell_dofree='2Dxy'
/ 
ATOMIC_SPECIES
B	10.811	B.pbe-n-kjpaw_psl.1.0.0.UPF	
H	1.01	H.pbe-kjpaw_psl.1.0.0.UPF	
CELL_PARAMETERS (alat)
1.95760880	0.00001960	0.00000000	
0.00002020	1.74762320	0.00000000	
0.00000000	0.00000000	5.00000000	
ATOMIC_POSITIONS {alat}
B	-0.00514477	-0.00190781	-0.00549216	
B	0.32544164	-0.00190502	-0.00483178	
B	0.65600965	-0.00190388	-0.00090186	
B	0.15328447	0.28935848	-0.00951070	
B	0.49760968	0.28937200	-0.00321475	
B	-0.00514511	0.58065400	-0.00797004	
B	0.32545630	0.58064420	-0.00690528	
B	0.65601741	0.58065024	-0.00179872	
B	0.15330324	0.87192423	-0.00564396	
B	0.49768392	0.87191677	-0.00783753	
B	-0.00509320	1.16317315	-0.00025730	
B	0.32550147	1.16318023	-0.00535842	
B	0.65611426	1.16318595	-0.00956932	
B	0.15331673	1.45442618	-0.00350529	
B	0.49768853	1.45444329	-0.00649346	
B	0.97362388	-0.00187821	0.00412983	
B	1.30423766	-0.00186886	0.00301276	
B	1.63484550	-0.00187715	-0.00061208	
B	1.13206926	0.28940072	0.00717196	
B	1.47641596	0.28939655	0.00014265	
B	0.97362718	0.58068330	0.00363893	
B	1.30424627	0.58066007	0.00285651	
B	1.63485125	0.58067004	-0.00201317	
B	1.13208828	0.87193751	-0.00005155	
B	1.47646654	0.87192589	0.00401646	
B	0.97376578	1.16321924	-0.00664501	
B	1.30429859	1.16320507	0.00078491	
B	1.63489528	1.16319959	0.00537148	
B	1.13209977	1.45447782	-0.00021870	
B	1.47646837	1.45447576	0.00430082	
K_POINTS {AUTOMATIC}
3 3 1 0 0 0
