&CONTROL
	calculation='relax'
	restart_mode='from_scratch'
	prefix='b12'
	pseudo_dir='/home/ngys/Desktop/pseudo'
	outdir='./tmp'
	tstress=.true.
/ 
&SYSTEM
	ibrav=0,
	celldm(1)=9.408,
	nat=30
	ntyp=1
	ecutwfc=50.0,
	ecutrho=400.0,
	occupations='smearing'
	smearing='m-v'
	degauss=0.01
	vdw_corr='dft-d3'
/ 
&ELECTRONS
	conv_thr=1.d-8
	mixing_beta=0.4
/ 
&IONS
	ion_dynamics='bfgs' ,
/ 
&CELL
	cell_dynamics='bfgs'
	cell_dofree='2Dxy'
/ 
ATOMIC_SPECIES
B	10.811	B.pbe-n-kjpaw_psl.1.0.0.UPF	
H	1.01	H.pbe-kjpaw_psl.1.0.0.UPF	
CELL_PARAMETERS (alat)
1.99756000	0.00002000	0.00000000	
0.00002000	1.73032000	0.00000000	
0.00000000	0.00000000	5.00000000	
ATOMIC_POSITIONS {alat}
B	-0.00612609	-0.00189338	-0.00558254	
B	0.33207853	-0.00187974	-0.00475993	
B	0.67027491	-0.00189700	-0.00077090	
B	0.15643306	0.28649821	-0.00982115	
B	0.50774498	0.28651146	-0.00306461	
B	-0.00612771	0.57489645	-0.00812438	
B	0.33209290	0.57489454	-0.00693134	
B	0.67028113	0.57490015	-0.00168820	
B	0.15645753	0.86329197	-0.00564971	
B	0.50781682	0.86328442	-0.00800335	
B	-0.00605781	1.15165054	-0.00010820	
B	0.33213716	1.15166965	-0.00535927	
B	0.67036501	1.15166465	-0.00979034	
B	0.15647161	1.44004200	-0.00338631	
B	0.50782412	1.44005628	-0.00660216	
B	0.99264982	-0.00186357	0.00424819	
B	1.33085328	-0.00183177	0.00304075	
B	1.66905873	-0.00186984	-0.00063902	
B	1.15519756	0.28653863	0.00752976	
B	1.50651423	0.28653469	0.00001373	
B	0.99265208	0.57491728	0.00374192	
B	1.33085992	0.57489845	0.00284968	
B	1.66906207	0.57491688	-0.00209498	
B	1.15523602	0.86330175	-0.00013961	
B	1.50656811	0.86329696	0.00416170	
B	0.99277928	1.15169236	-0.00689384	
B	1.33090818	1.15169349	0.00069051	
B	1.66912003	1.15167529	0.00560226	
B	1.15524662	1.44008980	-0.00033306	
B	1.50657056	1.44008112	0.00445966	
K_POINTS {AUTOMATIC}
3 3 1 0 0 0
