&CONTROL
	calculation='relax'
	restart_mode='from_scratch'
	prefix='a0b-1'
	pseudo_dir='/home/ngys/Desktop/pseudo'
	outdir='./tmp'
	tstress=.true.
/ 
&SYSTEM
	ibrav=0,
	celldm(1)=9.6,
	nat=30
	ntyp=1
	ecutwfc=50.0,
	ecutrho=400.0,
	occupations='smearing'
	smearing='m-v'
	degauss=0.01
	vdw_corr='dft-d3'
/ 
&ELECTRONS
	conv_thr=1.d-8
	mixing_beta=0.4
/ 
&IONS
	ion_dynamics='bfgs' ,
/ 
&CELL
	cell_dynamics='bfgs'
	cell_dofree='2Dxy'
/ 
ATOMIC_SPECIES
B	10.811	B.pbe-n-kjpaw_psl.1.0.0.UPF	
H	1.01	H.pbe-kjpaw_psl.1.0.0.UPF	
CELL_PARAMETERS (alat)
1.99756000	0.00002000	0.00000000	
0.00001980	1.71301680	0.00000000	
0.00000000	0.00000000	5.00000000	
ATOMIC_POSITIONS {alat}
B	-0.00614667	-0.00187672	-0.00542032	
B	0.33212457	-0.00186848	-0.00472143	
B	0.67033628	-0.00186290	-0.00082867	
B	0.15831231	0.28362884	-0.00956597	
B	0.50590567	0.28364674	-0.00315427	
B	-0.00614655	0.56914563	-0.00792814	
B	0.33214371	0.56915748	-0.00687875	
B	0.67034584	0.56914670	-0.00171519	
B	0.15831838	0.85466430	-0.00564034	
B	0.50599312	0.85465881	-0.00785387	
B	-0.00612837	1.14013088	-0.00028648	
B	0.33218603	1.14014969	-0.00530141	
B	0.67046296	1.14015111	-0.00945816	
B	0.15833179	1.42561922	-0.00346473	
B	0.50599403	1.42564174	-0.00644177	
B	0.99251757	-0.00184520	0.00405201	
B	1.33082388	-0.00182755	0.00300551	
B	1.66916062	-0.00184262	-0.00064141	
B	1.15701451	0.28367287	0.00727521	
B	1.50465259	0.28366908	0.00009124	
B	0.99252135	0.56917602	0.00351933	
B	1.33083147	0.56916893	0.00281431	
B	1.66916640	0.56916752	-0.00207014	
B	1.15701972	0.85467073	-0.00015582	
B	1.50470139	0.85465432	0.00410098	
B	0.99268031	1.14018031	-0.00672689	
B	1.33090171	1.14017561	0.00065907	
B	1.66918438	1.14016256	0.00528740	
B	1.15703270	1.42568424	-0.00032791	
B	1.50470093	1.42568426	0.00437186	
K_POINTS {AUTOMATIC}
3 3 1 0 0 0
