&CONTROL
	calculation='relax'
	restart_mode='from_scratch'
	prefix='a0b-2'
	pseudo_dir='/home/ngys/Desktop/pseudo'
	outdir='./tmp'
	tstress=.true.
/ 
&SYSTEM
	ibrav=0,
	celldm(1)=9.6,
	nat=30
	ntyp=1
	ecutwfc=50.0,
	ecutrho=400.0,
	occupations='smearing'
	smearing='m-v'
	degauss=0.01
	vdw_corr='dft-d3'
/ 
&ELECTRONS
	conv_thr=1.d-8
	mixing_beta=0.4
/ 
&IONS
	ion_dynamics='bfgs' ,
/ 
&CELL
	cell_dynamics='bfgs'
	cell_dofree='2Dxy'
/ 
ATOMIC_SPECIES
B	10.811	B.pbe-n-kjpaw_psl.1.0.0.UPF	
H	1.01	H.pbe-kjpaw_psl.1.0.0.UPF	
CELL_PARAMETERS (alat)
1.99756000	0.00002000	0.00000000	
0.00001960	1.69571360	0.00000000	
0.00000000	0.00000000	5.00000000	
ATOMIC_POSITIONS {alat}
B	-0.00658293	-0.00185993	-0.00543505	
B	0.33212168	-0.00184945	-0.00469964	
B	0.67076931	-0.00184637	-0.00079882	
B	0.15861623	0.28076647	-0.00963327	
B	0.50559893	0.28078380	-0.00314236	
B	-0.00658325	0.56339290	-0.00795477	
B	0.33214144	0.56340919	-0.00688394	
B	0.67077869	0.56339599	-0.00168034	
B	0.15862052	0.84603458	-0.00565398	
B	0.50568860	0.84602742	-0.00788766	
B	-0.00656819	1.12861166	-0.00027954	
B	0.33218455	1.12863340	-0.00529211	
B	0.67089794	1.12863235	-0.00948268	
B	0.15863430	1.41122217	-0.00344754	
B	0.50568926	1.41124422	-0.00644492	
B	0.99208042	-0.00182757	0.00406293	
B	1.33082434	-0.00180756	0.00301102	
B	1.66960282	-0.00182763	-0.00064187	
B	1.15731980	0.28080943	0.00734968	
B	1.50434987	0.28080617	0.00008887	
B	0.99208393	0.56342192	0.00351753	
B	1.33083173	0.56341935	0.00281264	
B	1.66960832	0.56341592	-0.00208743	
B	1.15732466	0.84604127	-0.00017399	
B	1.50439963	0.84602266	0.00414727	
B	0.99224507	1.12866120	-0.00677969	
B	1.33090368	1.12865931	0.00063090	
B	1.66962452	1.12864249	0.00532519	
B	1.15733803	1.41128435	-0.00035947	
B	1.50439872	1.41128679	0.00440830	
K_POINTS {AUTOMATIC}
3 3 1 0 0 0
