&CONTROL
	calculation='relax'
	restart_mode='from_scratch'
	prefix='a0b0'
	pseudo_dir='/home/ngys/Desktop/pseudo'
	outdir='./tmp'
	tstress=.true.
/ 
&SYSTEM
	ibrav=0,
	celldm(1)=9.6,
	nat=30
	ntyp=1
	ecutwfc=50.0,
	ecutrho=400.0,
	occupations='smearing'
	smearing='m-v'
	degauss=0.01
	vdw_corr='dft-d3'
/ 
&ELECTRONS
	conv_thr=1.d-8
	mixing_beta=0.4
/ 
&IONS
	ion_dynamics='bfgs' ,
/ 
&CELL
	cell_dynamics='bfgs'
	cell_dofree='2Dxy'
/ 
ATOMIC_SPECIES
B	10.811	B.pbe-n-kjpaw_psl.1.0.0.UPF	
H	1.01	H.pbe-kjpaw_psl.1.0.0.UPF	
CELL_PARAMETERS (alat)
1.99756000	0.00002000	0.00000000	
0.00002000	1.73032000	0.00000000	
0.00000000	0.00000000	5.00000000	
ATOMIC_POSITIONS {alat}
B	-0.00553520	-0.00189627	-0.00539556	
B	0.33209485	-0.00186344	-0.00473430	
B	0.66973717	-0.00185315	-0.00088952	
B	0.15798058	0.28649642	-0.00958052	
B	0.50618334	0.28651637	-0.00320033	
B	-0.00553001	0.57490217	-0.00802650	
B	0.33212306	0.57489319	-0.00696336	
B	0.66975016	0.57487484	-0.00172408	
B	0.15792038	0.86331677	-0.00561228	
B	0.50631605	0.86329293	-0.00790037	
B	-0.00564431	1.15164337	-0.00038805	
B	0.33217550	1.15165405	-0.00524733	
B	0.66995942	1.15166432	-0.00944491	
B	0.15793815	1.43998353	-0.00347894	
B	0.50630309	1.44002884	-0.00641596	
B	0.99295337	-0.00188217	0.00415678	
B	1.33083681	-0.00193847	0.00306846	
B	1.66876702	-0.00182730	-0.00068764	
B	1.15671455	0.28654134	0.00737784	
B	1.50504515	0.28653523	0.00003999	
B	0.99295553	0.57495533	0.00358463	
B	1.33084727	0.57501153	0.00290867	
B	1.66877934	0.57489393	-0.00210053	
B	1.15662122	0.86337380	-0.00021196	
B	1.50504883	0.86327006	0.00427576	
B	0.99321907	1.15170072	-0.00687643	
B	1.33097344	1.15168293	0.00064356	
B	1.66871988	1.15168884	0.00530673	
B	1.15664705	1.44000575	-0.00039409	
B	1.50504187	1.44009624	0.00450549	
K_POINTS {AUTOMATIC}
3 3 1 0 0 0
