&CONTROL
	calculation='relax'
	restart_mode='from_scratch'
	prefix='a0b1'
	pseudo_dir='/home/ngys/Desktop/pseudo'
	outdir='./tmp'
	tstress=.true.
/ 
&SYSTEM
	ibrav=0,
	celldm(1)=9.6,
	nat=30
	ntyp=1
	ecutwfc=50.0,
	ecutrho=400.0,
	occupations='smearing'
	smearing='m-v'
	degauss=0.01
	vdw_corr='dft-d3'
/ 
&ELECTRONS
	conv_thr=1.d-8
	mixing_beta=0.4
/ 
&IONS
	ion_dynamics='bfgs' ,
/ 
&CELL
	cell_dynamics='bfgs'
	cell_dofree='2Dxy'
/ 
ATOMIC_SPECIES
B	10.811	B.pbe-n-kjpaw_psl.1.0.0.UPF	
H	1.01	H.pbe-kjpaw_psl.1.0.0.UPF	
CELL_PARAMETERS (alat)
1.99756000	0.00002000	0.00000000	
0.00002020	1.74762320	0.00000000	
0.00000000	0.00000000	5.00000000	
ATOMIC_POSITIONS {alat}
B	-0.00527725	-0.00191268	-0.00539843	
B	0.33211148	-0.00189638	-0.00474344	
B	0.66947309	-0.00188186	-0.00088934	
B	0.15796795	0.28935705	-0.00952407	
B	0.50622238	0.28937643	-0.00319913	
B	-0.00527396	0.58065183	-0.00796674	
B	0.33213513	0.58065287	-0.00692381	
B	0.66948425	0.58063478	-0.00174907	
B	0.15794287	0.87193660	-0.00562204	
B	0.50632931	0.87192587	-0.00785339	
B	-0.00531575	1.16316476	-0.00036068	
B	0.33217939	1.16317697	-0.00527508	
B	0.66965305	1.16318473	-0.00942998	
B	0.15795768	1.45439538	-0.00348910	
B	0.50632334	1.45442866	-0.00641766	
B	0.99329882	-0.00189309	0.00410385	
B	1.33083079	-0.00191232	0.00303759	
B	1.66839590	-0.00185744	-0.00066126	
B	1.15668549	0.28940304	0.00727768	
B	1.50503203	0.28939725	0.00007548	
B	0.99330233	0.58069699	0.00355640	
B	1.33084044	0.58071679	0.00287009	
B	1.66840573	0.58065691	-0.00206935	
B	1.15663869	0.87195956	-0.00017070	
B	1.50505932	0.87191325	0.00416826	
B	0.99350708	1.16321885	-0.00677093	
B	1.33094457	1.16320454	0.00066876	
B	1.66837497	1.16320466	0.00527387	
B	1.15665764	1.45445248	-0.00034079	
B	1.50505589	1.45448288	0.00441827	
K_POINTS {AUTOMATIC}
3 3 1 0 0 0
