&CONTROL
	calculation='relax'
	restart_mode='from_scratch'
	prefix='a0b2'
	pseudo_dir='/home/ngys/Desktop/pseudo'
	outdir='./tmp'
	tstress=.true.
/ 
&SYSTEM
	ibrav=0,
	celldm(1)=9.6,
	nat=30
	ntyp=1
	ecutwfc=50.0,
	ecutrho=400.0,
	occupations='smearing'
	smearing='m-v'
	degauss=0.01
	vdw_corr='dft-d3'
/ 
&ELECTRONS
	conv_thr=1.d-8
	mixing_beta=0.4
/ 
&IONS
	ion_dynamics='bfgs' ,
/ 
&CELL
	cell_dynamics='bfgs'
	cell_dofree='2Dxy'
/ 
ATOMIC_SPECIES
B	10.811	B.pbe-n-kjpaw_psl.1.0.0.UPF	
H	1.01	H.pbe-kjpaw_psl.1.0.0.UPF	
CELL_PARAMETERS (alat)
1.99756000	0.00002000	0.00000000	
0.00002040	1.76492640	0.00000000	
0.00000000	0.00000000	5.00000000	
ATOMIC_POSITIONS {alat}
B	-0.00523712	-0.00191382	-0.00513528	
B	0.33220597	-0.00191068	-0.00486200	
B	0.66948626	-0.00194208	-0.00120628	
B	0.15826959	0.29221131	-0.00830438	
B	0.50612515	0.29222604	-0.00334824	
B	-0.00524349	0.58639428	-0.00680422	
B	0.33219733	0.58637382	-0.00623571	
B	0.66948505	0.58642983	-0.00212230	
B	0.15836180	0.88050597	-0.00550647	
B	0.50612544	0.88051711	-0.00720903	
B	-0.00503736	1.17470754	-0.00032592	
B	0.33224789	1.17471445	-0.00554859	
B	0.66944274	1.17471452	-0.00862120	
B	0.15837797	1.46887837	-0.00380150	
B	0.50615304	1.46887974	-0.00635002	
B	0.99364562	-0.00187530	0.00307196	
B	1.33076489	-0.00181426	0.00253524	
B	1.66795898	-0.00191590	-0.00040568	
B	1.15685878	0.29225279	0.00540476	
B	1.50458228	0.29224520	0.00069835	
B	0.99364422	0.58641312	0.00279118	
B	1.33076589	0.58634022	0.00227279	
B	1.66795401	0.58643781	-0.00162744	
B	1.15698690	0.88054211	0.00045498	
B	1.50466128	0.88057250	0.00270050	
B	0.99362595	1.17473480	-0.00473517	
B	1.33074526	1.17473850	0.00104087	
B	1.66812593	1.17471708	0.00411916	
B	1.15698712	1.46889626	0.00044567	
B	1.50467525	1.46884565	0.00320923	
K_POINTS {AUTOMATIC}
3 3 1 0 0 0
