&CONTROL
	calculation='relax'
	restart_mode='from_scratch'
	prefix='a1b-2'
	pseudo_dir='/home/ngys/Desktop/pseudo'
	outdir='./tmp'
	tstress=.true.
/ 
&SYSTEM
	ibrav=0,
	celldm(1)=9.6,
	nat=30
	ntyp=1
	ecutwfc=50.0,
	ecutrho=400.0,
	occupations='smearing'
	smearing='m-v'
	degauss=0.01
	vdw_corr='dft-d3'
/ 
&ELECTRONS
	conv_thr=1.d-8
	mixing_beta=0.4
/ 
&IONS
	ion_dynamics='bfgs' ,
/ 
&CELL
	cell_dynamics='bfgs'
	cell_dofree='2Dxy'
/ 
ATOMIC_SPECIES
B	10.811	B.pbe-n-kjpaw_psl.1.0.0.UPF	
H	1.01	H.pbe-kjpaw_psl.1.0.0.UPF	
CELL_PARAMETERS (alat)
2.01753560	0.00002020	0.00000000	
0.00001960	1.69571360	0.00000000	
0.00000000	0.00000000	5.00000000	
ATOMIC_POSITIONS {alat}
B	-0.00666995	-0.00185945	-0.00541978	
B	0.33542672	-0.00184452	-0.00464882	
B	0.67748011	-0.00185208	-0.00075113	
B	0.16129620	0.28076519	-0.00962062	
B	0.50954950	0.28078424	-0.00311599	
B	-0.00667067	0.56338995	-0.00784315	
B	0.33544439	0.56340472	-0.00679983	
B	0.67748807	0.56340025	-0.00164049	
B	0.16131145	0.84602839	-0.00567518	
B	0.50962767	0.84602455	-0.00783769	
B	-0.00663195	1.12861436	-0.00028654	
B	0.33548838	1.12863701	-0.00530263	
B	0.67759002	1.12863236	-0.00939817	
B	0.16132601	1.41123050	-0.00342810	
B	0.50963153	1.41125091	-0.00638984	
B	1.00204004	-0.00182470	0.00392450	
B	1.34414960	-0.00179753	0.00295666	
B	1.68627502	-0.00182995	-0.00059485	
B	1.17000520	0.28080867	0.00725657	
B	1.51829014	0.28080448	0.00016458	
B	1.00204363	0.56341465	0.00337448	
B	1.34415612	0.56341132	0.00272225	
B	1.68627729	0.56341493	-0.00206412	
B	1.17003137	0.84603864	-0.00017306	
B	1.51833853	0.84602551	0.00404709	
B	1.00218215	1.12866017	-0.00663698	
B	1.34421736	1.12866304	0.00060030	
B	1.68631589	1.12864010	0.00524111	
B	1.17004269	1.41128822	-0.00037449	
B	1.51833951	1.41128258	0.00430917	
K_POINTS {AUTOMATIC}
3 3 1 0 0 0
