&CONTROL
	calculation='relax'
	restart_mode='from_scratch'
	prefix='a1b-1'
	pseudo_dir='/home/ngys/Desktop/pseudo'
	outdir='./tmp'
	tstress=.true.
/ 
&SYSTEM
	ibrav=0,
	celldm(1)=9.6,
	nat=30
	ntyp=1
	ecutwfc=50.0,
	ecutrho=400.0,
	occupations='smearing'
	smearing='m-v'
	degauss=0.01
	vdw_corr='dft-d3'
/ 
&ELECTRONS
	conv_thr=1.d-8
	mixing_beta=0.4
/ 
&IONS
	ion_dynamics='bfgs' ,
/ 
&CELL
	cell_dynamics='bfgs'
	cell_dofree='2Dxy'
/ 
ATOMIC_SPECIES
B	10.811	B.pbe-n-kjpaw_psl.1.0.0.UPF	
H	1.01	H.pbe-kjpaw_psl.1.0.0.UPF	
CELL_PARAMETERS (alat)
2.01753560	0.00002020	0.00000000	
0.00001980	1.71301680	0.00000000	
0.00000000	0.00000000	5.00000000	
ATOMIC_POSITIONS {alat}
B	-0.00640005	-0.00187516	-0.00538768	
B	0.33543128	-0.00186338	-0.00467300	
B	0.67721228	-0.00186985	-0.00079120	
B	0.16114786	0.28362745	-0.00948518	
B	0.50970332	0.28364685	-0.00312729	
B	-0.00640118	0.56914306	-0.00777400	
B	0.33544693	0.56915091	-0.00677044	
B	0.67722031	0.56915239	-0.00169587	
B	0.16116955	0.85465590	-0.00565852	
B	0.50977594	0.85465464	-0.00777369	
B	-0.00634993	1.14013425	-0.00028644	
B	0.33548985	1.14015318	-0.00531881	
B	0.67731219	1.14015188	-0.00932739	
B	0.16118323	1.42563076	-0.00347361	
B	0.50978146	1.42565084	-0.00639136	
B	1.00232510	-0.00183993	0.00386800	
B	1.34414936	-0.00181340	0.00293185	
B	1.68598505	-0.00184653	-0.00058964	
B	1.16985514	0.28367177	0.00709424	
B	1.51843092	0.28366653	0.00018585	
B	1.00232827	0.56916724	0.00334841	
B	1.34415533	0.56915571	0.00270263	
B	1.68598777	0.56916785	-0.00202608	
B	1.16988972	0.85466863	-0.00013265	
B	1.51847938	0.85465777	0.00393956	
B	1.00245823	1.14017885	-0.00651457	
B	1.34420837	1.14017932	0.00063867	
B	1.68603487	1.14016024	0.00514570	
B	1.16989975	1.42568757	-0.00029774	
B	1.51848174	1.42567877	0.00423550	
K_POINTS {AUTOMATIC}
3 3 1 0 0 0
