&CONTROL
	calculation='relax'
	restart_mode='from_scratch'
	prefix='a1b0'
	pseudo_dir='/home/ngys/Desktop/pseudo'
	outdir='./tmp'
	tstress=.true.
/ 
&SYSTEM
	ibrav=0,
	celldm(1)=9.6,
	nat=30
	ntyp=1
	ecutwfc=50.0,
	ecutrho=400.0,
	occupations='smearing'
	smearing='m-v'
	degauss=0.01
	vdw_corr='dft-d3'
/ 
&ELECTRONS
	conv_thr=1.d-8
	mixing_beta=0.4
/ 
&IONS
	ion_dynamics='bfgs' ,
/ 
&CELL
	cell_dynamics='bfgs'
	cell_dofree='2Dxy'
/ 
ATOMIC_SPECIES
B	10.811	B.pbe-n-kjpaw_psl.1.0.0.UPF	
H	1.01	H.pbe-kjpaw_psl.1.0.0.UPF	
CELL_PARAMETERS (alat)
2.01753560	0.00002020	0.00000000	
0.00002000	1.73032000	0.00000000	
0.00000000	0.00000000	5.00000000	
ATOMIC_POSITIONS {alat}
B	-0.00587783	-0.00189079	-0.00535598	
B	0.33543524	-0.00188334	-0.00470349	
B	0.67669268	-0.00188693	-0.00084101	
B	0.16068428	0.28648918	-0.00936155	
B	0.51017176	0.28650896	-0.00314327	
B	-0.00587844	0.57489559	-0.00771118	
B	0.33544953	0.57489858	-0.00674937	
B	0.67670055	0.57490412	-0.00175247	
B	0.16071038	0.86328414	-0.00563161	
B	0.51024133	0.86328480	-0.00771578	
B	-0.00582071	1.15165405	-0.00029164	
B	0.33549204	1.15166946	-0.00533439	
B	0.67678690	1.15167105	-0.00927334	
B	0.16072337	1.44002882	-0.00350258	
B	0.51024763	1.44004899	-0.00638939	
B	1.00285535	-0.00185595	0.00383396	
B	1.34414807	-0.00183048	0.00291426	
B	1.68544991	-0.00186323	-0.00059145	
B	1.16938793	0.28653476	0.00695683	
B	1.51889033	0.28652889	0.00018957	
B	1.00285865	0.57492120	0.00333761	
B	1.34415420	0.57490189	0.00269332	
B	1.68545297	0.57492209	-0.00199897	
B	1.16942729	0.86329837	-0.00009860	
B	1.51893962	0.86328945	0.00384751	
B	1.00298291	1.15169863	-0.00640538	
B	1.34420198	1.15169603	0.00068216	
B	1.68550481	1.15168084	0.00506541	
B	1.16943662	1.44008674	-0.00023846	
B	1.51894268	1.44007578	0.00416455	
K_POINTS {AUTOMATIC}
3 3 1 0 0 0
