&CONTROL
	calculation='relax'
	restart_mode='from_scratch'
	prefix='b12'
	pseudo_dir='/home/ngys/Desktop/pseudo'
	outdir='./tmp'
	tstress=.true.
/ 
&SYSTEM
	ibrav=0,
	celldm(1)=9.696,
	nat=30
	ntyp=1
	ecutwfc=50.0,
	ecutrho=400.0,
	occupations='smearing'
	smearing='m-v'
	degauss=0.01
	vdw_corr='dft-d3'
/ 
&ELECTRONS
	conv_thr=1.d-8
	mixing_beta=0.4
/ 
&IONS
	ion_dynamics='bfgs' ,
/ 
&CELL
	cell_dynamics='bfgs'
	cell_dofree='2Dxy'
/ 
ATOMIC_SPECIES
B	10.811	B.pbe-n-kjpaw_psl.1.0.0.UPF	
H	1.01	H.pbe-kjpaw_psl.1.0.0.UPF	
CELL_PARAMETERS (alat)
1.99756000	0.00002000	0.00000000	
0.00002000	1.73032000	0.00000000	
0.00000000	0.00000000	5.00000000	
ATOMIC_POSITIONS {alat}
B	-0.00551256	-0.00188545	-0.00520988	
B	0.33212811	-0.00186952	-0.00470196	
B	0.66970219	-0.00189037	-0.00095439	
B	0.15896975	0.28648692	-0.00886023	
B	0.50527557	0.28650629	-0.00313060	
B	-0.00551514	0.57489673	-0.00724172	
B	0.33213245	0.57487986	-0.00646024	
B	0.66970593	0.57491394	-0.00187574	
B	0.15901757	0.86326636	-0.00554058	
B	0.50531763	0.86326968	-0.00744402	
B	-0.00540357	1.15166202	-0.00030745	
B	0.33217994	1.15167212	-0.00540590	
B	0.66974508	1.15167557	-0.00888135	
B	0.15903295	1.44004911	-0.00359441	
B	0.50533178	1.44006590	-0.00632583	
B	0.99329783	-0.00185277	0.00340060	
B	1.33083157	-0.00182776	0.00270760	
B	1.66838368	-0.00186409	-0.00051358	
B	1.15768074	0.28653034	0.00621391	
B	1.50393518	0.28652218	0.00036941	
B	0.99329853	0.57492387	0.00299185	
B	1.33083484	0.57489399	0.00243794	
B	1.66838343	0.57492142	-0.00184158	
B	1.15774659	0.86330503	0.00006484	
B	1.50398670	0.86329606	0.00328691	
B	0.99336782	1.15169912	-0.00564004	
B	1.33085818	1.15169766	0.00077775	
B	1.66848202	1.15168189	0.00455965	
B	1.15775356	1.44007362	-0.00000069	
B	1.50399430	1.44006200	0.00371499	
K_POINTS {AUTOMATIC}
3 3 1 0 0 0
