&CONTROL
	calculation='relax'
	restart_mode='from_scratch'
	prefix='a1b2'
	pseudo_dir='/home/ngys/Desktop/pseudo'
	outdir='./tmp'
	tstress=.true.
/ 
&SYSTEM
	ibrav=0,
	celldm(1)=9.6,
	nat=30
	ntyp=1
	ecutwfc=50.0,
	ecutrho=400.0,
	occupations='smearing'
	smearing='m-v'
	degauss=0.01
	vdw_corr='dft-d3'
/ 
&ELECTRONS
	conv_thr=1.d-8
	mixing_beta=0.4
/ 
&IONS
	ion_dynamics='bfgs' ,
/ 
&CELL
	cell_dynamics='bfgs'
	cell_dofree='2Dxy'
/ 
ATOMIC_SPECIES
B	10.811	B.pbe-n-kjpaw_psl.1.0.0.UPF	
H	1.01	H.pbe-kjpaw_psl.1.0.0.UPF	
CELL_PARAMETERS (alat)
2.01753560	0.00002020	0.00000000	
0.00002040	1.76492640	0.00000000	
0.00000000	0.00000000	5.00000000	
ATOMIC_POSITIONS {alat}
B	-0.00532042	-0.00191930	-0.00507360	
B	0.33545726	-0.00190750	-0.00473157	
B	0.67616329	-0.00192484	-0.00111927	
B	0.16073275	0.29221461	-0.00845884	
B	0.51017222	0.29223353	-0.00324873	
B	-0.00532298	0.58639545	-0.00692055	
B	0.33545852	0.58637407	-0.00630487	
B	0.67616624	0.58641500	-0.00201235	
B	0.16078471	0.88052480	-0.00549217	
B	0.51020594	0.88052937	-0.00725393	
B	-0.00520382	1.17469936	-0.00044280	
B	0.33550737	1.17470474	-0.00542444	
B	0.67619150	1.17471214	-0.00854330	
B	0.16080035	1.46885264	-0.00371230	
B	0.51022197	1.46886913	-0.00624646	
B	1.00348406	-0.00188627	0.00312832	
B	1.34413354	-0.00186426	0.00259288	
B	1.68481257	-0.00189908	-0.00046282	
B	1.16942171	0.29225844	0.00569943	
B	1.51879498	0.29224886	0.00053374	
B	1.00348456	0.58642525	0.00275853	
B	1.34413654	0.58638985	0.00231961	
B	1.68481210	0.58642255	-0.00171743	
B	1.16948975	0.88057111	0.00021653	
B	1.51884859	0.88056194	0.00297602	
B	1.00353347	1.17473556	-0.00510871	
B	1.34415503	1.17473148	0.00085956	
B	1.68491645	1.17471934	0.00416071	
B	1.16949649	1.46887116	0.00019077	
B	1.51885728	1.46885785	0.00343328	
K_POINTS {AUTOMATIC}
3 3 1 0 0 0
