&CONTROL
	calculation='relax'
	restart_mode='from_scratch'
	prefix='a2b-2'
	pseudo_dir='/home/ngys/Desktop/pseudo'
	outdir='./tmp'
	tstress=.true.
/ 
&SYSTEM
	ibrav=0,
	celldm(1)=9.6,
	nat=30
	ntyp=1
	ecutwfc=50.0,
	ecutrho=400.0,
	occupations='smearing'
	smearing='m-v'
	degauss=0.01
	vdw_corr='dft-d3'
/ 
&ELECTRONS
	conv_thr=1.d-8
	mixing_beta=0.4
/ 
&IONS
	ion_dynamics='bfgs' ,
/ 
&CELL
	cell_dynamics='bfgs'
	cell_dofree='2Dxy'
/ 
ATOMIC_SPECIES
B	10.811	B.pbe-n-kjpaw_psl.1.0.0.UPF	
H	1.01	H.pbe-kjpaw_psl.1.0.0.UPF	
CELL_PARAMETERS (alat)
2.03751120	0.00002040	0.00000000	
0.00001960	1.69571360	0.00000000	
0.00000000	0.00000000	5.00000000	
ATOMIC_POSITIONS {alat}
B	-0.00684851	-0.00185874	-0.00537543	
B	0.33872180	-0.00184333	-0.00460765	
B	0.68427874	-0.00185397	-0.00073507	
B	0.16409731	0.28076476	-0.00958560	
B	0.51337481	0.28078490	-0.00313309	
B	-0.00684908	0.56338731	-0.00772615	
B	0.33874020	0.56340420	-0.00673771	
B	0.68428622	0.56340161	-0.00161227	
B	0.16411588	0.84602691	-0.00568701	
B	0.51344898	0.84602532	-0.00778522	
B	-0.00680731	1.12861552	-0.00033419	
B	0.33878542	1.12863805	-0.00529578	
B	0.68438438	1.12863153	-0.00929773	
B	0.16413085	1.41123234	-0.00340902	
B	0.51345352	1.41125322	-0.00630899	
B	1.01188507	-0.00182351	0.00380968	
B	1.35748155	-0.00179420	0.00291717	
B	1.70306912	-0.00183128	-0.00056786	
B	1.18280807	0.28080849	0.00717510	
B	1.53212160	0.28080369	0.00023593	
B	1.01188906	0.56341018	0.00323761	
B	1.35748840	0.56340987	0.00265862	
B	1.70306978	0.56341503	-0.00205895	
B	1.18284247	0.84603829	-0.00017316	
B	1.53216801	0.84602513	0.00398108	
B	1.01202132	1.12865999	-0.00651363	
B	1.35754767	1.12866467	0.00057285	
B	1.70311360	1.12863834	0.00513479	
B	1.18285318	1.41128954	-0.00040090	
B	1.53216939	1.41128264	0.00421782	
K_POINTS {AUTOMATIC}
3 3 1 0 0 0
