&CONTROL
	calculation='relax'
	restart_mode='from_scratch'
	prefix='a2b-1'
	pseudo_dir='/home/ngys/Desktop/pseudo'
	outdir='./tmp'
	tstress=.true.
/ 
&SYSTEM
	ibrav=0,
	celldm(1)=9.6,
	nat=30
	ntyp=1
	ecutwfc=50.0,
	ecutrho=400.0,
	occupations='smearing'
	smearing='m-v'
	degauss=0.01
	vdw_corr='dft-d3'
/ 
&ELECTRONS
	conv_thr=1.d-8
	mixing_beta=0.4
/ 
&IONS
	ion_dynamics='bfgs' ,
/ 
&CELL
	cell_dynamics='bfgs'
	cell_dofree='2Dxy'
/ 
ATOMIC_SPECIES
B	10.811	B.pbe-n-kjpaw_psl.1.0.0.UPF	
H	1.01	H.pbe-kjpaw_psl.1.0.0.UPF	
CELL_PARAMETERS (alat)
2.03751120	0.00002040	0.00000000	
0.00001980	1.71301680	0.00000000	
0.00000000	0.00000000	5.00000000	
ATOMIC_POSITIONS {alat}
B	-0.00657147	-0.00187453	-0.00533836	
B	0.33872595	-0.00186376	-0.00463850	
B	0.68400261	-0.00186928	-0.00078690	
B	0.16390057	0.28362740	-0.00942574	
B	0.51357161	0.28364769	-0.00314446	
B	-0.00657205	0.56914123	-0.00767682	
B	0.33874261	0.56915101	-0.00672248	
B	0.68401065	0.56915166	-0.00168371	
B	0.16392156	0.85465654	-0.00566780	
B	0.51364376	0.85465612	-0.00772073	
B	-0.00652709	1.14013493	-0.00034101	
B	0.33878646	1.14015301	-0.00530462	
B	0.68410552	1.14015156	-0.00921204	
B	0.16393539	1.42562981	-0.00348045	
B	0.51364897	1.42565122	-0.00632367	
B	1.01216477	-0.00183948	0.00376344	
B	1.35748196	-0.00181405	0.00289994	
B	1.70278799	-0.00184626	-0.00056984	
B	1.18261271	0.28367213	0.00700184	
B	1.53231506	0.28366604	0.00024321	
B	1.01216834	0.56916507	0.00323002	
B	1.35748803	0.56915697	0.00265531	
B	1.70279003	0.56916730	-0.00201206	
B	1.18264830	0.85466972	-0.00013498	
B	1.53236094	0.85465620	0.00388789	
B	1.01229856	1.14017888	-0.00641356	
B	1.35754357	1.14017990	0.00061313	
B	1.70283435	1.14015992	0.00503165	
B	1.18265840	1.42568747	-0.00030618	
B	1.53236345	1.42567967	0.00417273	
K_POINTS {AUTOMATIC}
3 3 1 0 0 0
