&CONTROL
	calculation='relax'
	restart_mode='from_scratch'
	prefix='a2b0'
	pseudo_dir='/home/ngys/Desktop/pseudo'
	outdir='./tmp'
	tstress=.true.
/ 
&SYSTEM
	ibrav=0,
	celldm(1)=9.6,
	nat=30
	ntyp=1
	ecutwfc=50.0,
	ecutrho=400.0,
	occupations='smearing'
	smearing='m-v'
	degauss=0.01
	vdw_corr='dft-d3'
/ 
&ELECTRONS
	conv_thr=1.d-8
	mixing_beta=0.4
/ 
&IONS
	ion_dynamics='bfgs' ,
/ 
&CELL
	cell_dynamics='bfgs'
	cell_dofree='2Dxy'
/ 
ATOMIC_SPECIES
B	10.811	B.pbe-n-kjpaw_psl.1.0.0.UPF	
H	1.01	H.pbe-kjpaw_psl.1.0.0.UPF	
CELL_PARAMETERS (alat)
2.03751120	0.00002040	0.00000000	
0.00002000	1.73032000	0.00000000	
0.00000000	0.00000000	5.00000000	
ATOMIC_POSITIONS {alat}
B	-0.00617072	-0.00188981	-0.00525140	
B	0.33873021	-0.00187672	-0.00463047	
B	0.68360697	-0.00188499	-0.00085124	
B	0.16356761	0.28649011	-0.00916248	
B	0.51390951	0.28651072	-0.00311995	
B	-0.00617129	0.57489461	-0.00745481	
B	0.33874278	0.57489188	-0.00658893	
B	0.68361398	0.57490436	-0.00175569	
B	0.16359493	0.86328112	-0.00560968	
B	0.51397142	0.86328199	-0.00757735	
B	-0.00611065	1.15165636	-0.00036801	
B	0.33878707	1.15166913	-0.00532569	
B	0.68369501	1.15167149	-0.00899209	
B	0.16360935	1.44003446	-0.00352324	
B	0.51397904	1.44005546	-0.00628087	
B	1.01258591	-0.00185831	0.00355578	
B	1.35748277	-0.00184016	0.00280401	
B	1.70236910	-0.00186080	-0.00053961	
B	1.18228654	0.28653429	0.00663499	
B	1.53263392	0.28652710	0.00030568	
B	1.01258838	0.57492257	0.00306392	
B	1.35748776	0.57490984	0.00253915	
B	1.70237103	0.57491632	-0.00193251	
B	1.18232316	0.86330562	-0.00008359	
B	1.53267843	0.86329167	0.00362325	
B	1.01269957	1.15169780	-0.00606076	
B	1.35753588	1.15169553	0.00064889	
B	1.70242795	1.15167999	0.00476741	
B	1.18233307	1.44007878	-0.00020767	
B	1.53268284	1.44007127	0.00396820	
K_POINTS {AUTOMATIC}
3 3 1 0 0 0
