&CONTROL
	calculation='relax'
	restart_mode='from_scratch'
	prefix='a2b1'
	pseudo_dir='/home/ngys/Desktop/pseudo'
	outdir='./tmp'
	tstress=.true.
/ 
&SYSTEM
	ibrav=0,
	celldm(1)=9.6,
	nat=30
	ntyp=1
	ecutwfc=50.0,
	ecutrho=400.0,
	occupations='smearing'
	smearing='m-v'
	degauss=0.01
	vdw_corr='dft-d3'
/ 
&ELECTRONS
	conv_thr=1.d-8
	mixing_beta=0.4
/ 
&IONS
	ion_dynamics='bfgs' ,
/ 
&CELL
	cell_dynamics='bfgs'
	cell_dofree='2Dxy'
/ 
ATOMIC_SPECIES
B	10.811	B.pbe-n-kjpaw_psl.1.0.0.UPF	
H	1.01	H.pbe-kjpaw_psl.1.0.0.UPF	
CELL_PARAMETERS (alat)
2.03751120	0.00002040	0.00000000	
0.00002020	1.74762320	0.00000000	
0.00000000	0.00000000	5.00000000	
ATOMIC_POSITIONS {alat}
B	-0.00574600	-0.00190437	-0.00509766	
B	0.33873419	-0.00188963	-0.00461971	
B	0.68319065	-0.00190112	-0.00097891	
B	0.16323818	0.28935309	-0.00871977	
B	0.51424586	0.28937363	-0.00311435	
B	-0.00574696	0.58064626	-0.00708019	
B	0.33874114	0.58063107	-0.00636710	
B	0.68319559	0.58065794	-0.00187119	
B	0.16327353	0.87190396	-0.00550578	
B	0.51429376	0.87190642	-0.00734606	
B	-0.00566593	1.16317839	-0.00044654	
B	0.33878690	1.16318532	-0.00534768	
B	0.68325360	1.16319213	-0.00861508	
B	0.16328902	1.45444200	-0.00359818	
B	0.51430478	1.45446257	-0.00620288	
B	1.01303550	-0.00187534	0.00321810	
B	1.35748371	-0.00186399	0.00264414	
B	1.70192250	-0.00187632	-0.00049565	
B	1.18196366	0.28939649	0.00603926	
B	1.53294699	0.28938734	0.00040329	
B	1.01303693	0.58067787	0.00278140	
B	1.35748731	0.58066006	0.00235013	
B	1.70192351	0.58066503	-0.00180943	
B	1.18200582	0.87194336	0.00001445	
B	1.53299187	0.87192636	0.00321509	
B	1.01311962	1.16321668	-0.00547846	
B	1.35752482	1.16321165	0.00070808	
B	1.70199768	1.16320007	0.00432248	
B	1.18201506	1.45446895	-0.00004405	
B	1.53299823	1.45446348	0.00363752	
K_POINTS {AUTOMATIC}
3 3 1 0 0 0
