&CONTROL
	calculation='relax'
	restart_mode='from_scratch'
	prefix='b12'
	pseudo_dir='/home/ngys/Desktop/pseudo'
	outdir='./tmp'
	tstress=.true.
/ 
&SYSTEM
	ibrav=0,
	celldm(1)=9.792,
	nat=30
	ntyp=1
	ecutwfc=50.0,
	ecutrho=400.0,
	occupations='smearing'
	smearing='m-v'
	degauss=0.01
	vdw_corr='dft-d3'
/ 
&ELECTRONS
	conv_thr=1.d-8
	mixing_beta=0.4
/ 
&IONS
	ion_dynamics='bfgs' ,
/ 
&CELL
	cell_dynamics='bfgs'
	cell_dofree='2Dxy'
/ 
ATOMIC_SPECIES
B	10.811	B.pbe-n-kjpaw_psl.1.0.0.UPF	
H	1.01	H.pbe-kjpaw_psl.1.0.0.UPF	
CELL_PARAMETERS (alat)
1.99756000	0.00002000	0.00000000	
0.00002000	1.73032000	0.00000000	
0.00000000	0.00000000	5.00000000	
ATOMIC_POSITIONS {alat}
B	-0.00529762	-0.00186651	-0.00332983	
B	0.33212474	-0.00184394	-0.00403371	
B	0.66952043	-0.00185899	-0.00245221	
B	0.15984948	0.28649707	-0.00432038	
B	0.50441824	0.28651615	-0.00310295	
B	-0.00530225	0.57489360	-0.00310736	
B	0.33210241	0.57486018	-0.00380995	
B	0.66950971	0.57492271	-0.00285540	
B	0.15989919	0.86323880	-0.00423049	
B	0.50437780	0.86325003	-0.00504196	
B	-0.00516505	1.15168484	-0.00193660	
B	0.33214130	1.15167425	-0.00507288	
B	0.66943832	1.15169081	-0.00419187	
B	0.15992387	1.44009417	-0.00414680	
B	0.50440744	1.44010790	-0.00504939	
B	0.99358823	-0.00186241	-0.00048328	
B	1.33086654	-0.00188172	0.00077625	
B	1.66817143	-0.00186434	-0.00005037	
B	1.15860666	0.28651869	0.00022576	
B	1.50304681	0.28650099	0.00124189	
B	0.99358090	0.57493571	-0.00059082	
B	1.33085978	0.57491717	0.00012247	
B	1.66816412	0.57489015	-0.00059080	
B	1.15862621	0.86332996	0.00077452	
B	1.50309549	0.86330746	-0.00049508	
B	0.99348911	1.15169423	0.00046166	
B	1.33086565	1.15168273	0.00080695	
B	1.66828648	1.15167941	-0.00054008	
B	1.15863584	1.44003070	0.00119610	
B	1.50311141	1.44002193	0.00042185	
K_POINTS {AUTOMATIC}
3 3 1 0 0 0
