&CONTROL
	calculation='relax'
	restart_mode='from_scratch'
	prefix='a-2b1'
	pseudo_dir='/home/ngys/Desktop/pseudo'
	outdir='./tmp'
	tstress=.true.
/ 
&SYSTEM
	ibrav=0,
	a=5.83900
	nat=56
	ntyp=1
	ecutwfc=50.0,
	ecutrho=400.0,
	occupations='smearing'
	smearing='m-v'
	degauss=0.01
	vdw_corr='dft-d3'
/ 
&ELECTRONS
	conv_thr=1.d-8
	mixing_beta=0.7
/ 
&IONS
	ion_dynamics='bfgs' ,
/ 
&CELL
	cell_dynamics='bfgs'
	cell_dofree='2Dxy'
/ 
ATOMIC_SPECIES
B	10.811	B.pbe-n-kjpaw_psl.1.0.0.UPF	
H	1.0	H.pbe-kjpaw_psl.1.0.0.UPF	
CELL_PARAMETERS (alat)
1.96000000	0.00000000	0.00000000	
0.00000000	2.33031684	0.00000000	
0.00000000	0.00000000	5.13786607	
ATOMIC_POSITIONS {alat}
B	0.00000000	0.86991426	2.56893304	
B	0.98000000	2.03507275	2.56893304	
B	0.98000000	0.86991442	2.56893304	
B	0.00000000	2.03507293	2.56893304	
B	0.49000013	0.28733532	2.56893304	
B	1.46999978	1.45249373	2.56893304	
B	1.46999987	0.28733532	2.56893304	
B	0.49000022	1.45249373	2.56893304	
B	0.00000000	0.29524390	2.56893304	
B	0.98000000	1.46040242	2.56893304	
B	0.98000000	0.29524408	2.56893304	
B	-0.00000000	1.46040258	2.56893304	
B	0.49000022	0.87782311	2.56893304	
B	1.46999987	2.04298152	2.56893304	
B	1.46999978	0.87782311	2.56893304	
B	0.49000013	2.04298152	2.56893304	
B	0.74016312	0.14553153	2.56893304	
B	1.72016293	1.31068998	2.56893304	
B	1.72016292	0.14553152	2.56893304	
B	0.74016324	1.31068993	2.56893304	
B	0.25016321	0.72811053	2.56893304	
B	1.23016302	1.89326900	2.56893304	
B	1.23016298	0.72811071	2.56893304	
B	0.25016321	1.89326915	2.56893304	
B	0.23983707	1.01962685	2.56893304	
B	1.21983688	2.18478530	2.56893304	
B	1.21983676	1.01962690	2.56893304	
B	0.23983708	2.18478531	2.56893304	
B	0.72983698	0.43704784	2.56893304	
B	1.70983679	1.60220630	2.56893304	
B	1.70983679	0.43704769	2.56893304	
B	0.72983702	1.60220612	2.56893304	
B	0.23983708	0.14553152	2.56893304	
B	1.21983676	1.31068993	2.56893304	
B	1.21983688	0.14553153	2.56893304	
B	0.23983707	1.31068998	2.56893304	
B	0.72983702	0.72811071	2.56893304	
B	1.70983679	1.89326915	2.56893304	
B	1.70983679	0.72811053	2.56893304	
B	0.72983698	1.89326900	2.56893304	
B	0.74016324	1.01962690	2.56893304	
B	1.72016292	2.18478531	2.56893304	
B	1.72016293	1.01962685	2.56893304	
B	0.74016312	2.18478530	2.56893304	
B	0.25016321	0.43704769	2.56893304	
B	1.23016298	1.60220612	2.56893304	
B	1.23016302	0.43704784	2.56893304	
B	0.25016321	1.60220630	2.56893304	
B	0.00000000	0.58257919	2.56893304	
B	0.98000000	1.74773764	2.56893304	
B	0.98000000	0.58257920	2.56893304	
B	0.00000000	1.74773765	2.56893304	
B	0.49000019	0.00000000	2.56893304	
B	1.46999984	1.16515842	2.56893304	
B	1.46999981	0.00000000	2.56893304	
B	0.49000016	1.16515842	2.56893304	
K_POINTS {AUTOMATIC}
3 3 1 0 0 0
