&CONTROL
	calculation='relax'
	restart_mode='from_scratch'
	prefix='a0b2'
	pseudo_dir='/home/ngys/Desktop/pseudo'
	outdir='./tmp'
	tstress=.true.
/ 
&SYSTEM
	ibrav=0,
	a=5.83900
	nat=56
	ntyp=1
	ecutwfc=50.0,
	ecutrho=400.0,
	occupations='smearing'
	smearing='m-v'
	degauss=0.01
	vdw_corr='dft-d3'
/ 
&ELECTRONS
	conv_thr=1.d-8
	mixing_beta=0.7
/ 
&IONS
	ion_dynamics='bfgs' ,
/ 
&CELL
	cell_dynamics='bfgs'
	cell_dofree='2Dxy'
/ 
ATOMIC_SPECIES
B	10.811	B.pbe-n-kjpaw_psl.1.0.0.UPF	
H	1.0	H.pbe-kjpaw_psl.1.0.0.UPF	
CELL_PARAMETERS (alat)
2.00000000	0.00000000	0.00000000	
0.00000000	2.35338928	0.00000000	
0.00000000	0.00000000	5.13786607	
ATOMIC_POSITIONS {alat}
B	0.00000000	0.87835410	2.56893304	
B	1.00000000	2.05504870	2.56893304	
B	1.00000000	0.87835425	2.56893304	
B	0.00000000	2.05504888	2.56893304	
B	0.49999996	0.29000674	2.56893304	
B	1.50000000	1.46670135	2.56893304	
B	1.50000004	0.29000674	2.56893304	
B	0.50000000	1.46670135	2.56893304	
B	0.00000000	0.29834040	2.56893304	
B	1.00000000	1.47503503	2.56893304	
B	1.00000000	0.29834058	2.56893304	
B	-0.00000000	1.47503518	2.56893304	
B	0.50000000	0.88668793	2.56893304	
B	1.50000004	2.06338254	2.56893304	
B	1.50000000	0.88668793	2.56893304	
B	0.49999996	2.06338254	2.56893304	
B	0.75412347	0.14734591	2.56893304	
B	1.75412346	1.32404050	2.56893304	
B	1.75412355	0.14734577	2.56893304	
B	0.75412350	1.32404043	2.56893304	
B	0.25412352	0.73569321	2.56893304	
B	1.25412354	1.91238777	2.56893304	
B	1.25412347	0.73569335	2.56893304	
B	0.25412344	1.91238794	2.56893304	
B	0.24587654	1.02934877	2.56893304	
B	1.24587653	2.20604336	2.56893304	
B	1.24587650	1.02934884	2.56893304	
B	0.24587645	2.20604350	2.56893304	
B	0.74587646	0.44100150	2.56893304	
B	1.74587648	1.61769606	2.56893304	
B	1.74587656	0.44100133	2.56893304	
B	0.74587653	1.61769592	2.56893304	
B	0.24587645	0.14734577	2.56893304	
B	1.24587650	1.32404043	2.56893304	
B	1.24587653	0.14734591	2.56893304	
B	0.24587654	1.32404050	2.56893304	
B	0.74587653	0.73569335	2.56893304	
B	1.74587656	1.91238794	2.56893304	
B	1.74587648	0.73569321	2.56893304	
B	0.74587646	1.91238777	2.56893304	
B	0.75412350	1.02934884	2.56893304	
B	1.75412355	2.20604350	2.56893304	
B	1.75412346	1.02934877	2.56893304	
B	0.75412347	2.20604336	2.56893304	
B	0.25412344	0.44100133	2.56893304	
B	1.25412347	1.61769592	2.56893304	
B	1.25412354	0.44100150	2.56893304	
B	0.25412352	1.61769606	2.56893304	
B	0.00000000	0.58834730	2.56893304	
B	1.00000000	1.76504187	2.56893304	
B	1.00000000	0.58834741	2.56893304	
B	0.00000000	1.76504198	2.56893304	
B	0.49999999	0.00000000	2.56893304	
B	1.49999999	1.17669464	2.56893304	
B	1.50000001	0.00000000	2.56893304	
B	0.50000001	1.17669464	2.56893304	
K_POINTS {AUTOMATIC}
3 3 1 0 0 0
