&CONTROL
	calculation='relax'
	restart_mode='from_scratch'
	prefix='a1b-1'
	pseudo_dir='/home/ngys/Desktop/pseudo'
	outdir='./tmp'
	tstress=.true.
/ 
&SYSTEM
	ibrav=0,
	a=5.83900
	nat=56
	ntyp=1
	ecutwfc=50.0,
	ecutrho=400.0,
	occupations='smearing'
	smearing='m-v'
	degauss=0.01
	vdw_corr='dft-d3'
/ 
&ELECTRONS
	conv_thr=1.d-8
	mixing_beta=0.7
/ 
&IONS
	ion_dynamics='bfgs' ,
/ 
&CELL
	cell_dynamics='bfgs'
	cell_dofree='2Dxy'
/ 
ATOMIC_SPECIES
B	10.811	B.pbe-n-kjpaw_psl.1.0.0.UPF	
H	1.0	H.pbe-kjpaw_psl.1.0.0.UPF	
CELL_PARAMETERS (alat)
2.02000000	0.00000000	0.00000000	
0.00000000	2.28417195	0.00000000	
0.00000000	0.00000000	5.13786607	
ATOMIC_POSITIONS {alat}
B	0.00000000	0.85618169	2.56893304	
B	1.01000000	1.99826776	2.56893304	
B	1.01000000	0.85618166	2.56893304	
B	-0.00000000	1.99826772	2.56893304	
B	0.50500006	0.28516549	2.56893304	
B	1.51500004	1.42725155	2.56893304	
B	1.51499994	0.28516549	2.56893304	
B	0.50499996	1.42725155	2.56893304	
B	0.00000000	0.28590422	2.56893304	
B	1.01000000	1.42799029	2.56893304	
B	1.01000000	0.28590418	2.56893304	
B	-0.00000000	1.42799026	2.56893304	
B	0.50499996	0.85692040	2.56893304	
B	1.51499994	1.99900645	2.56893304	
B	1.51500004	0.85692040	2.56893304	
B	0.50500006	1.99900645	2.56893304	
B	0.75965052	0.14281912	2.56893304	
B	1.76965053	1.28490511	2.56893304	
B	1.76965046	0.14281913	2.56893304	
B	0.75965036	1.28490518	2.56893304	
B	0.25464489	0.71384335	2.56893304	
B	1.26464486	1.85592948	2.56893304	
B	1.26464495	0.71384332	2.56893304	
B	0.25464494	1.85592940	2.56893304	
B	0.25034947	0.99926683	2.56893304	
B	1.26034948	2.14135283	2.56893304	
B	1.26034964	0.99926676	2.56893304	
B	0.25034954	2.14135282	2.56893304	
B	0.75535514	0.42824247	2.56893304	
B	1.76535511	1.57032860	2.56893304	
B	1.76535506	0.42824255	2.56893304	
B	0.75535505	1.57032863	2.56893304	
B	0.25034954	0.14281913	2.56893304	
B	1.26034964	1.28490518	2.56893304	
B	1.26034948	0.14281912	2.56893304	
B	0.25034947	1.28490511	2.56893304	
B	0.75535505	0.71384332	2.56893304	
B	1.76535506	1.85592940	2.56893304	
B	1.76535511	0.71384335	2.56893304	
B	0.75535514	1.85592948	2.56893304	
B	0.75965036	0.99926676	2.56893304	
B	1.76965046	2.14135282	2.56893304	
B	1.76965053	0.99926683	2.56893304	
B	0.75965052	2.14135283	2.56893304	
B	0.25464494	0.42824255	2.56893304	
B	1.26464495	1.57032863	2.56893304	
B	1.26464486	0.42824247	2.56893304	
B	0.25464489	1.57032860	2.56893304	
B	0.00000000	0.57104291	2.56893304	
B	1.01000000	1.71312900	2.56893304	
B	1.01000000	0.57104295	2.56893304	
B	0.00000000	1.71312904	2.56893304	
B	0.50500004	0.00000000	2.56893304	
B	1.51500013	1.14208597	2.56893304	
B	1.51499996	0.00000000	2.56893304	
B	0.50499987	1.14208597	2.56893304	
K_POINTS {AUTOMATIC}
3 3 1 0 0 0
