&CONTROL
	calculation='relax'
	restart_mode='from_scratch'
	prefix='a2b2'
	pseudo_dir='/home/ngys/Desktop/pseudo'
	outdir='./tmp'
	tstress=.true.
/ 
&SYSTEM
	ibrav=0,
	a=5.83900
	nat=56
	ntyp=1
	ecutwfc=50.0,
	ecutrho=400.0,
	occupations='smearing'
	smearing='m-v'
	degauss=0.01
	vdw_corr='dft-d3'
/ 
&ELECTRONS
	conv_thr=1.d-8
	mixing_beta=0.7
/ 
&IONS
	ion_dynamics='bfgs' ,
/ 
&CELL
	cell_dynamics='bfgs'
	cell_dofree='2Dxy'
/ 
ATOMIC_SPECIES
B	10.811	B.pbe-n-kjpaw_psl.1.0.0.UPF	
H	1.0	H.pbe-kjpaw_psl.1.0.0.UPF	
CELL_PARAMETERS (alat)
2.04000000	0.00000000	0.00000000	
0.00000000	2.35338928	0.00000000	
0.00000000	0.00000000	5.13786607	
ATOMIC_POSITIONS {alat}
B	0.00000000	0.87897345	2.56893304	
B	1.02000000	2.05566850	2.56893304	
B	1.02000000	0.87897375	2.56893304	
B	-0.00000000	2.05566830	2.56893304	
B	0.51000007	0.29062666	2.56893304	
B	1.52999999	1.46732152	2.56893304	
B	1.52999993	0.29062666	2.56893304	
B	0.51000001	1.46732152	2.56893304	
B	0.00000000	0.29772098	2.56893304	
B	1.02000000	1.47441553	2.56893304	
B	1.02000000	0.29772078	2.56893304	
B	-0.00000000	1.47441583	2.56893304	
B	0.51000001	0.88606776	2.56893304	
B	1.52999993	2.06276262	2.56893304	
B	1.52999999	0.88606776	2.56893304	
B	0.51000007	2.06276262	2.56893304	
B	0.76775244	0.14744630	2.56893304	
B	1.78775227	1.32414120	2.56893304	
B	1.78775229	0.14744646	2.56893304	
B	0.76775238	1.32414108	2.56893304	
B	0.25775228	0.73579334	2.56893304	
B	1.27775223	1.91248834	2.56893304	
B	1.27775230	0.73579342	2.56893304	
B	0.25775234	1.91248823	2.56893304	
B	0.25224773	1.02924807	2.56893304	
B	1.27224756	2.20594297	2.56893304	
B	1.27224762	1.02924819	2.56893304	
B	0.25224771	2.20594281	2.56893304	
B	0.76224777	0.44090093	2.56893304	
B	1.78224772	1.61759593	2.56893304	
B	1.78224766	0.44090104	2.56893304	
B	0.76224770	1.61759585	2.56893304	
B	0.25224771	0.14744646	2.56893304	
B	1.27224762	1.32414108	2.56893304	
B	1.27224756	0.14744630	2.56893304	
B	0.25224773	1.32414120	2.56893304	
B	0.76224770	0.73579342	2.56893304	
B	1.78224766	1.91248823	2.56893304	
B	1.78224772	0.73579334	2.56893304	
B	0.76224777	1.91248834	2.56893304	
B	0.76775238	1.02924819	2.56893304	
B	1.78775229	2.20594281	2.56893304	
B	1.78775227	1.02924807	2.56893304	
B	0.76775244	2.20594297	2.56893304	
B	0.25775234	0.44090104	2.56893304	
B	1.27775230	1.61759585	2.56893304	
B	1.27775223	0.44090093	2.56893304	
B	0.25775228	1.61759593	2.56893304	
B	0.00000000	0.58834715	2.56893304	
B	1.02000000	1.76504212	2.56893304	
B	1.02000000	0.58834716	2.56893304	
B	0.00000000	1.76504213	2.56893304	
B	0.51000002	0.00000000	2.56893304	
B	1.52999988	1.17669464	2.56893304	
B	1.52999998	0.00000000	2.56893304	
B	0.51000012	1.17669464	2.56893304	
K_POINTS {AUTOMATIC}
3 3 1 0 0 0
