&CONTROL
	calculation='relax'
	restart_mode='from_scratch'
	prefix='a0b1'
	pseudo_dir='/home/ngys/Desktop/pseudo'
	outdir='./tmp'
	tstress=.true.
/ 
&SYSTEM
	ibrav=0,
  A =    5.83900
  nat = 56
  ntyp = 1
	ecutwfc=50.0,
	ecutrho=400.0,
	occupations='smearing'
	smearing='m-v'
	degauss=0.01
	vdw_corr='dft-d3'
/ 
&ELECTRONS
	conv_thr=1.d-8
	mixing_beta=0.7
/ 
&IONS
	ion_dynamics='bfgs' ,
/ 
&CELL
	cell_dynamics='bfgs'
	cell_dofree='2Dxy'
/ 
ATOMIC_SPECIES
B	10.811	B.pbe-n-kjpaw_psl.1.0.0.UPF	
H	1.0	H.pbe-kjpaw_psl.1.0.0.UPF	
CELL_PARAMETERS {alat}
  2.000000000000000   0.000000000000000   0.000000000000000 
  0.000000000000000   2.307244391162870   0.000000000000000 
  0.000000000000000   0.000000000000000   5.137866072957697 
ATOMIC_POSITIONS {alat}
B   0.000000000000000   0.863059373180339   2.568933036478849 
B   1.000000000000000   2.016681568761773   2.568933036478849 
B   1.000000000000000   0.863059373180339   2.568933036478849 
B   0.000000000000000   2.016681568761773   2.568933036478849 
B   0.500000000000000   0.286248275389622   2.568933036478849 
B   1.500000000000000   1.439870470971057   2.568933036478849 
B   1.500000000000000   0.286248275389622   2.568933036478849 
B   0.500000000000000   1.439870470971057   2.568933036478849 
B   0.000000000000000   0.290562822401096   2.568933036478849 
B   1.000000000000000   1.444185017982531   2.568933036478849 
B   1.000000000000000   0.290562822401096   2.568933036478849 
B   0.000000000000000   1.444185017982531   2.568933036478849 
B   0.500000000000000   0.867373920191814   2.568933036478849 
B   1.500000000000000   2.020996115773248   2.568933036478849 
B   1.500000000000000   0.867373920191814   2.568933036478849 
B   0.500000000000000   2.020996115773248   2.568933036478849 
B   0.753510000000000   0.143995122452475   2.568933036478849 
B   1.753510000000000   1.297617318033910   2.568933036478849 
B   1.753510000000000   0.143995122452475   2.568933036478849 
B   0.753510000000000   1.297617318033910   2.568933036478849 
B   0.253510000000000   0.720806220243192   2.568933036478849 
B   1.253510000000000   1.874428415824628   2.568933036478849 
B   1.253510000000000   0.720806220243192   2.568933036478849 
B   0.253510000000000   1.874428415824628   2.568933036478849 
B   0.246490000000000   1.009627073128960   2.568933036478849 
B   1.246490000000001   2.163249268710395   2.568933036478849 
B   1.246490000000000   1.009627073128960   2.568933036478849 
B   0.246490000000000   2.163249268710395   2.568933036478849 
B   0.746490000000000   0.432815975338243   2.568933036478849 
B   1.746490000000000   1.586438170919678   2.568933036478849 
B   1.746490000000000   0.432815975338243   2.568933036478849 
B   0.746490000000000   1.586438170919678   2.568933036478849 
B   0.246490000000000   0.143995122452475   2.568933036478849 
B   1.246490000000000   1.297617318033910   2.568933036478849 
B   1.246490000000000   0.143995122452475   2.568933036478849 
B   0.246490000000000   1.297617318033910   2.568933036478849 
B   0.746490000000000   0.720806220243192   2.568933036478849 
B   1.746490000000001   1.874428415824628   2.568933036478849 
B   1.746490000000000   0.720806220243192   2.568933036478849 
B   0.746490000000000   1.874428415824628   2.568933036478849 
B   0.753510000000000   1.009627073128960   2.568933036478849 
B   1.753510000000000   2.163249268710395   2.568933036478849 
B   1.753510000000000   1.009627073128960   2.568933036478849 
B   0.753510000000000   2.163249268710395   2.568933036478849 
B   0.253510000000000   0.432815975338243   2.568933036478849 
B   1.253510000000000   1.586438170919678   2.568933036478849 
B   1.253510000000000   0.432815975338243   2.568933036478849 
B   0.253510000000000   1.586438170919678   2.568933036478849 
B   0.000000000000000   0.576811097790718   2.568933036478849 
B   1.000000000000000   1.730433293372153   2.568933036478849 
B   1.000000000000000   0.576811097790718   2.568933036478849 
B   0.000000000000000   1.730433293372153   2.568933036478849 
B   0.500000000000000   0.000000000000000   2.568933036478849 
B   1.500000000000000   1.153622195581435   2.568933036478849 
B   1.500000000000000   0.000000000000000   2.568933036478849 
B   0.500000000000000   1.153622195581435   2.568933036478849 
K_POINTS {automatic}
3 3 1 0 0 0
