&CONTROL
	calculation='scf'
	restart_mode='from_scratch'
	prefix='alpha1'
	pseudo_dir='/home/ngys/Desktop/pseudo'
	outdir='./tmp'
	tstress=.true.
/ 
&SYSTEM
	ibrav=0,
  	A =    5.83900
	nat = 56
	ntyp = 1
	ecutwfc=50.0,
	ecutrho=400.0,
	occupations='smearing'
	smearing='m-v'
	degauss=0.01
	vdw_corr='dft-d3'
/ 
&ELECTRONS
	conv_thr=1.d-8
	mixing_beta=0.7
/ 
&IONS
	ion_dynamics='bfgs' ,
/ 
&CELL
	cell_dynamics='bfgs'
	cell_dofree='2Dxy'
/ 
ATOMIC_SPECIES
B	10.811	B.pbe-n-kjpaw_psl.1.0.0.UPF	
H	1.0	H.pbe-kjpaw_psl.1.0.0.UPF	
CELL_PARAMETERS {alat}
   2.003677022   0.000000000   0.000000000
   0.000000000   2.310725754   0.000000000
   0.000000000   0.000000000   5.137866073

ATOMIC_POSITIONS (alat)
B             0.0000000000        0.8647548186        2.5689330365
B             1.0018385112        2.0201181075        2.5689330365
B             1.0018385112        0.8647548663        2.5689330365
B            -0.0000000000        2.0201181343        2.5689330365
B             0.5009192862        0.2870737011        2.5689330365
B             1.5027577752        1.4424368590        2.5689330365
B             1.5027577362        0.2870737011        2.5689330365
B             0.5009192472        1.4424368590        2.5689330365
B             0.0000000000        0.2906076197        2.5689330365
B             1.0018385112        1.4459708877        2.5689330365
B             1.0018385112        0.2906076465        2.5689330365
B            -0.0000000000        1.4459709355        2.5689330365
B             0.5009192472        0.8682888950        2.5689330365
B             1.5027577362        2.0236520529        2.5689330365
B             1.5027577752        0.8682888950        2.5689330365
B             0.5009192862        2.0236520529        2.5689330365
B             0.7543931412        0.1445507392        2.5689330365
B             1.7562315448        1.2999138300        2.5689330365
B             1.7562315367        0.1445507517        2.5689330365
B             0.7543930120        1.2999138220        2.5689330365
B             0.2534738216        0.7222320028        2.5689330365
B             1.2553122621        1.8775952423        2.5689330365
B             1.2553123237        0.7222320370        2.5689330365
B             0.2534737847        1.8775952653        2.5689330365
B             0.2474454776        1.0108119240        2.5689330365
B             1.2492838812        2.1661750148        2.5689330365
B             1.2492840104        1.0108119320        2.5689330365
B             0.2474454857        2.1661750023        2.5689330365
B             0.7483647603        0.4331305118        2.5689330365
B             1.7502032008        1.5884937512        2.5689330365
B             1.7502032377        0.4331304887        2.5689330365
B             0.7483646987        1.5884937170        2.5689330365
B             0.2474454857        0.1445507517        2.5689330365
B             1.2492840104        1.2999138220        2.5689330365
B             1.2492838812        0.1445507392        2.5689330365
B             0.2474454776        1.2999138300        2.5689330365
B             0.7483646987        0.7222320370        2.5689330365
B             1.7502032377        1.8775952653        2.5689330365
B             1.7502032008        0.7222320028        2.5689330365
B             0.7483647603        1.8775952423        2.5689330365
B             0.7543930120        1.0108119320        2.5689330365
B             1.7562315367        2.1661750023        2.5689330365
B             1.7562315448        1.0108119240        2.5689330365
B             0.7543931412        2.1661750148        2.5689330365
B             0.2534737847        0.4331304887        2.5689330365
B             1.2553123237        1.5884937170        2.5689330365
B             1.2553122621        0.4331305118        2.5689330365
B             0.2534738216        1.5884937512        2.5689330365
B             0.0000000000        0.5776812321        2.5689330365
B             1.0018385112        1.7330445013        2.5689330365
B             1.0018385112        0.5776812527        2.5689330365
B            -0.0000000000        1.7330445219        2.5689330365
B             0.5009193063        0.0000000000        2.5689330365
B             1.5027577787        1.1553628770        2.5689330365
B             1.5027577161        0.0000000000        2.5689330365
B             0.5009192437        1.1553628770        2.5689330365
K_POINTS {automatic}
3 3 1 0 0 0
