&CONTROL
	calculation='scf'
	restart_mode='from_scratch'
	prefix='alpha'
	pseudo_dir='.'
	outdir='./tmp'
	tstress=.true.
/ 
&SYSTEM
	ibrav=0,
	celldm(1)=9.5463,
	celldm(2)=1,
	celldm(3)=5,
	celldm(4)=0.5
	nat=32
	ntyp=1
	ecutwfc=50.0,
	ecutrho=400.0,
	occupations='smearing'
	smearing='m-v'
	degauss=0.01
/ 
&ELECTRONS
	conv_thr=1.d-8
	mixing_beta=0.7
/ 
ATOMIC_SPECIES
    B 10.811 b_pbe_v1.4.uspp.F.UPF
CELL_PARAMETERS (alat)
2.00089293	0.00001079	0.00000000	
1.00045581	1.73282884	0.00000000	
0.00000000	0.00000000	5.00000000	
ATOMIC_POSITIONS {alat}
B             0.3317114337       -0.0000704376        0.0000000000
B             0.6685779201       -0.0000620017        0.0000000000
B             0.1658336147        0.2872315188        0.0000000000
B             0.3342724968        0.5789583416        0.0000000000
B             0.5001514571        0.2887144738        0.0000000000
B             0.6660732400        0.5789874072        0.0000000000
B             0.8344899923        0.2872819022        0.0000000000
B             1.0004268589        0.5775557820        0.0000000000
B             0.8319799856        0.8663649765        0.0000000000
B             1.1688452147        0.8663733319        0.0000000000
B             0.6661008028        1.1537153986        0.0000000000
B             0.8345408451        1.4454422201        0.0000000000
B             1.0004158211        1.1551944204        0.0000000000
B             1.1662960735        1.4454458245        0.0000000000
B             1.3347141856        1.1537397275        0.0000000000
B             1.5006171023        1.4439899385        0.0000000000
B             1.3322376575       -0.0000657073        0.0000000000
B             1.6691048270       -0.0000563922        0.0000000000
B             1.1663168895        0.2872624874        0.0000000000
B             1.3347550538        0.5789885784        0.0000000000
B             1.5006720584        0.2887191179        0.0000000000
B             1.6665553731        0.5789678833        0.0000000000
B             1.8349722608        0.2872607830        0.0000000000
B             2.0008725383        0.5775179935        0.0000000000
B             1.8324269470        0.8663320835        0.0000000000
B             2.1692912946        0.8663408828        0.0000000000
B             1.6665116832        1.1536965867        0.0000000000
B             1.8349498620        1.4454212954        0.0000000000
B             2.0008634177        1.1551568958        0.0000000000
B             2.1667809928        1.4454260000        0.0000000000
B             2.3351976415        1.1537209763        0.0000000000
B             2.5011381586        1.4439957013        0.0000000000
K_POINTS {AUTOMATIC}
3 3 1 0 0 0

