&control 
	calculation='scf'
	restart_mode='from_scratch'
	prefix='b12'
	pseudo_dir='/home/ngys/Desktop/pseudo'
	outdir='./tmp'
	tstress =.true.
/
&system
	ibrav=0,
	celldm(1)=9.6,
	nat=30
	ntyp=1,
	ecutwfc= 50.0,
	ecutrho= 400.0,
	occupations = 'smearing'
	smearing = 'm-v'
	degauss = 0.01
	vdw_corr = 'DFT-D3'
/
&electrons
	conv_thr=1.d-8
	mixing_beta=0.4
/	
&ions
	ion_dynamics = 'bfgs' ,
/
&cell
	cell_dynamics='bfgs'
	cell_dofree='2Dxy'
/
ATOMIC_SPECIES 
B 10.811 B.pbe-n-kjpaw_psl.1.0.0.UPF

CELL_PARAMETERS (alat=  9.60000000)
1.99614 0.00005 0.     
0.00004 1.71592 0.     
0. 0. 5.

ATOMIC_POSITIONS (alat)
B            -0.0048548084        0.0039748333        0.0000000000
B             0.3330639565        0.0039460831        0.0000000000
B             0.6709871921        0.0039674292        0.0000000000
B             0.1592559856        0.2912180407        0.0000000000
B             0.5068752536        0.2912203416        0.0000000000
B            -0.0048463783        0.5784748366        0.0000000000
B             0.3330710357        0.5784463189        0.0000000000
B             0.6709930831        0.5784632878        0.0000000000
B             0.1592639341        0.8657194004        0.0000000000
B             0.5068806289        0.8657219596        0.0000000000
B            -0.0048325212        1.1529715373        0.0000000000
B             0.3330780937        1.1529447676        0.0000000000
B             0.6709965495        1.1529648386        0.0000000000
B             0.1592728958        1.4402087134        0.0000000000
B             0.5068888910        1.4402146521        0.0000000000
B             0.9943898200        0.0039892336        0.0000000000
B             1.3323007613        0.0039599870        0.0000000000
B             1.6702136619        0.0039803412        0.0000000000
B             1.1584981146        0.2912281705        0.0000000000
B             1.5061142215        0.2912329132        0.0000000000
B             0.9943985948        0.5784855627        0.0000000000
B             1.3323095644        0.5784595331        0.0000000000
B             1.6702222766        0.5784781819        0.0000000000
B             1.1585091578        0.8657272720        0.0000000000
B             1.5061236930        0.8657309592        0.0000000000
B             0.9944013561        1.1529874243        0.0000000000
B             1.3323179019        1.1529589379        0.0000000000
B             1.6702331968        1.1529775183        0.0000000000
B             1.1585161536        1.4402314153        0.0000000000
B             1.5061299790        1.4402332768        0.0000000000  
K_POINTS {automatic}
3 3 1 0 0 0	

