&control 
	calculation='scf'
	restart_mode='from_scratch'
	prefix='triangular'
	pseudo_dir='.'
	outdir='./tmp'
	tstress=.true.
/
&system
	ibrav=0,
	celldm(1)=15.28909
	nat=30
	ntyp=1,
	ecutwfc= 50.0,
	ecutrho= 400.0,
	occupations = 'smearing'
	smearing = 'mv'
	degauss = 0.01
	vdw_corr='DFT-D3'
/
&electrons
	conv_thr=1.d-8
	mixing_beta=0.4
/	

ATOMIC_SPECIES 
B 10.811 B.pbe-n-kjpaw_psl.1.0.0.UPF

CELL_PARAMETERS (alat= 15.28909000)
   0.996784896   0.000000105   0.000000000
   0.000000112   1.061623235   0.000000000
   0.000000000   0.000000000   2.472820610

ATOMIC_POSITIONS (alat)
B             0.0001234060        0.0001982202       -0.0000260907
B             0.0998043527        0.1771365018        0.1129854886
B             0.0001234518        0.3540733334       -0.0000265387
B             0.0998043848        0.5310110100        0.1129863626
B             0.0001234735        0.7079476381       -0.0000262579
B             0.0998044259        0.8848851432        0.1129870446
B             0.1994803504        0.0001982428       -0.0000260720
B             0.2991612860        0.1771365249        0.1129854678
B             0.1994803827        0.3540733552       -0.0000265400
B             0.2991613238        0.5310110278        0.1129863364
B             0.1994804238        0.7079476546       -0.0000262308
B             0.2991613522        0.8848851620        0.1129870173
B             0.3988372858        0.0001982631       -0.0000260487
B             0.4985182647        0.1771365438        0.1129854248
B             0.3988373323        0.3540733762       -0.0000265049
B             0.4985183002        0.5310110487        0.1129862924
B             0.3988373589        0.7079476742       -0.0000262035
B             0.4985183335        0.8848851828        0.1129869923
B             0.5981942999        0.0001982807       -0.0000260257
B             0.6978752747        0.1771365588        0.1129854139
B             0.5981943437        0.3540733955       -0.0000264668
B             0.6978753168        0.5310110723        0.1129862767
B             0.5981943740        0.7079476974       -0.0000261837
B             0.6978753474        0.8848852027        0.1129869826
B             0.7975513036        0.0001983005       -0.0000260581
B             0.8972322857        0.1771365812        0.1129854656
B             0.7975513444        0.3540734146       -0.0000264928
B             0.8972323192        0.5310110939        0.1129863380
B             0.7975513832        0.7079477207       -0.0000262252
B             0.8972323498        0.8848852257        0.1129870362
K_POINTS {automatic}
5 5 1 0 0 0	

