&control 
	calculation='scf'
	restart_mode='from_scratch'
	prefix='x3'
	pseudo_dir='/home/ngys/Desktop/pseudo'
	outdir='./tmp'
/
&system
	ibrav=0,
	celldm(1)=5.482
	nat=48
	ntyp=1,
	ecutwfc= 50.0,
	ecutrho= 400.0,
    	occupations = 'smearing'
    	smearing = 'm-v'
    	degauss = 0.01
	vdw_corr = 'dft-d3'
/
&electrons
	conv_thr=1.d-5
	mixing_beta=0.3
/	
&ions
	ion_dynamics = 'bfgs' ,
/
&cell
	cell_dynamics='bfgs'
	cell_dofree='2Dxy'
/
ATOMIC_SPECIES 
B 10.811 B.pbe-n-kjpaw_psl.1.0.0.UPF
CELL_PARAMETERS alat
4.02632 0.00086 0.     
1.50851 4.33981 0.     
0.    0.    6.897
ATOMIC_POSITIONS (alat)
B             0.0003473606       -0.0119707165        0.0000000000
B             0.0001764915        0.5618015583        0.0000000000
B             0.5032666775        0.3043892755        0.0000000000
B             0.5031791251        0.8783376382        0.0000000000
B             0.5031750295        1.4346220701        0.0000000000
B             0.5030044441        2.0083898336        0.0000000000
B             1.0060970003        1.7509848571        0.0000000000
B             1.0060178179        2.3249336435        0.0000000000
B             1.0060151197        2.8812315797        0.0000000000
B             1.0058474907        3.4550009266        0.0000000000
B             1.5089432084        3.1975986880        0.0000000000
B             1.5088595639        3.7715475085        0.0000000000
B             1.0069203091       -0.0117574066        0.0000000000
B             1.0067402330        0.5620145876        0.0000000000
B             1.5098354535        0.3046070884        0.0000000000
B             1.5097510108        0.8785519862        0.0000000000
B             1.5097504643        1.4348417972        0.0000000000
B             1.5095784701        2.0086048916        0.0000000000
B             2.0126785152        1.7512067600        0.0000000000
B             2.0125962639        2.3251574327        0.0000000000
B             2.0125945773        2.8814538404        0.0000000000
B             2.0124229412        3.4552215513        0.0000000000
B             2.5155177302        3.1978128059        0.0000000000
B             2.5154323557        3.7717637427        0.0000000000
B             2.0134966470       -0.0115460534        0.0000000000
B             2.0133202010        0.5622227870        0.0000000000
B             2.5164261747        0.3048250762        0.0000000000
B             2.5163389626        0.8787688327        0.0000000000
B             2.5163399407        1.4350641880        0.0000000000
B             2.5161640554        2.0088243514        0.0000000000
B             3.0192684567        1.7514225839        0.0000000000
B             3.0191773139        2.3253717687        0.0000000000
B             3.0191760527        2.8816638674        0.0000000000
B             3.0189977983        3.4554319332        0.0000000000
B             3.5220980241        3.1980237487        0.0000000000
B             3.5220103283        3.7719688366        0.0000000000
B             3.0200834780       -0.0113289077        0.0000000000
B             3.0199153004        0.5624399637        0.0000000000
B             3.5230172333        0.3050382184        0.0000000000
B             3.5229266309        0.8789844889        0.0000000000
B             3.5229237630        1.4352720771        0.0000000000
B             3.5227504827        2.0090359738        0.0000000000
B             4.0258479099        1.7516275792        0.0000000000
B             4.0257557811        2.3255762033        0.0000000000
B             4.0257546587        2.8818694760        0.0000000000
B             4.0255828840        3.4556378113        0.0000000000
B             4.5286847006        3.1982378249        0.0000000000
B             4.5285955683        3.7721814303        0.0000000000
K_POINTS {automatic}
3 3 1 0 0 0	
