&CONTROL
	calculation='scf'
	restart_mode='from_scratch'
	prefix='a-1b-1'
	pseudo_dir='/home/ngys/Desktop/pseudo'
	outdir='./tmp'
	tstress=.true.
/ 
&SYSTEM
	ibrav=0
	a=5.84500
	nat=56
	ntyp=1
	ecutwfc=50.0,
	ecutrho=400.0,
	occupations='smearing'
	smearing='m-v'
	degauss=0.01
	vdw_corr='dft-d3'
/ 
&ELECTRONS
	conv_thr=1.d-8
	mixing_beta=0.7
/ 
&IONS
	ion_dynamics='bfgs' ,
/ 
&CELL
	cell_dynamics='bfgs'
	cell_dofree='2Dxy'
/ 
ATOMIC_SPECIES
B	10.811	B.pbe-n-kjpaw_psl.1.0.0.UPF	
H	1.0	H.pbe-kjpaw_psl.1.0.0.UPF	
CELL_PARAMETERS (alat)
1.98427818	0.00164123	0.00000000	
0.00188822	2.28383390	0.00000000	
0.00000000	0.00000000	5.13259196	
ATOMIC_POSITIONS (alat)
B             0.8645496933        0.3641628014        2.5662959800
B             1.8576329026        1.5069005338        2.5662959800
B             1.8566888207        0.3649834010        2.5662959800
B             0.8654939062        1.5060798628        2.5662959800
B             0.1243472370        0.2174411352        2.5662959800
B             1.1174304902        1.3601787539        2.5662959800
B             1.1164863437        0.2182616816        2.5662959800
B             0.1252914051        1.3593580921        2.5662959800
B             0.3763110964        0.9264662425        2.5662959800
B             1.3693943030        2.0692038840        2.5662959800
B             1.3684501871        0.9272868316        2.5662959800
B             0.3772552413        2.0683832820        2.5662959800
B             0.1265953984        1.0728249220        2.5662959800
B             1.1196786225        2.2155624921        2.5662959800
B             1.1187344590        1.0736455138        2.5662959800
B             0.1275395152        2.2147419000        2.5662959800
B             0.3718930101        0.0714188844        2.5662959800
B             1.3649762055        1.2141563721        2.5662959800
B             1.3640320739        0.0722394602        2.5662959800
B             0.3728370712        1.2133357461        2.5662959800
B             0.8640503970        0.6460377948        2.5662959800
B             1.8571336247        1.7887755412        2.5662959800
B             1.8561895394        0.6468583920        2.5662959800
B             0.8649945880        1.7879549031        2.5662959800
B             0.6165540077        0.5010879258        2.5662959800
B             1.6096372855        1.6438256792        2.5662959800
B             1.6086930830        0.5019086232        2.5662959800
B             0.6174981610        1.6430051174        2.5662959800
B             0.1285334974        0.7785745862        2.5662959800
B             1.1216167067        1.9213123286        2.5662959800
B             1.1206724938        0.7793952672        2.5662959800
B             0.1294775793        1.9204917290        2.5662959800
B             0.8687359098        0.9252963761        2.5662959800
B             1.8618191630        2.0680339948        2.5662959800
B             1.8608750049        0.9261170379        2.5662959800
B             0.8696800563        2.0672134484        2.5662959800
B             0.6167721070        0.2162712460        2.5662959800
B             1.6098553036        1.3590088875        2.5662959800
B             1.6089111587        0.2170918480        2.5662959800
B             0.6177162129        1.3581882984        2.5662959800
B             0.8664877775        0.0699126379        2.5662959800
B             1.8595710116        1.2126502080        2.5662959800
B             1.8586268848        0.0707332300        2.5662959800
B             0.8674319410        1.2118296162        2.5662959800
B             0.6211901945        1.0713187579        2.5662959800
B             1.6142733999        2.2140562456        2.5662959800
B             1.6133293288        1.0721393839        2.5662959800
B             0.6221343261        2.2132356698        2.5662959800
B             0.1290327753        0.4966995888        2.5662959800
B             1.1221160030        1.6394373352        2.5662959800
B             1.1211718120        0.4975202269        2.5662959800
B             0.1299768606        1.6386167380        2.5662959800
B             0.3765291245        0.6416494508        2.5662959800
B             1.3696123923        1.7843872042        2.5662959800
B             1.3686682390        0.6424700126        2.5662959800
B             0.3774733170        1.7835665068        2.5662959800
K_POINTS {AUTOMATIC}
3 3 1 0 0 0
