&CONTROL
	calculation='scf'
	restart_mode='from_scratch'
	prefix='a-2b-2'
	pseudo_dir='/home/ngys/Desktop/pseudo'
	outdir='./tmp'
wf_collect=.true.
	tstress=.true.
/ 
&SYSTEM
	ibrav=0
	a=5.84500
	nat=56
	ntyp=1
	ecutwfc=50.0,
	ecutrho=400.0,
	occupations='smearing'
	smearing='m-v'
nbnd=225
nosym=.true,
	degauss=0.01
	vdw_corr='dft-d3'
/ 
&ELECTRONS
	conv_thr=1.d-8
	mixing_beta=0.7
/ 
&IONS
	ion_dynamics='bfgs' ,
/ 
&CELL
	cell_dynamics='bfgs'
	cell_dofree='2Dxy'
/ 
ATOMIC_SPECIES
B	10.811	B.pbe-n-kjpaw_psl.1.0.0.UPF	
H	1.0	H.pbe-kjpaw_psl.1.0.0.UPF	
CELL_PARAMETERS (alat)
1.96423497	0.00162465	0.00000000	
0.00186915	2.26076487	0.00000000	
0.00000000	0.00000000	5.13259196	
ATOMIC_POSITIONS {alat}
B             0.8556976073        0.3603514550        2.5662959800
B             1.8387497657        1.4915462689        2.5662959800
B             1.8378152009        0.3611637055        2.5662959800
B             0.8566322506        1.4907338909        2.5662959800
B             0.1234189358        0.2153548387        2.5662959800
B             1.1064710642        1.3465497886        2.5662959800
B             1.1055363593        0.2161672562        2.5662959800
B             0.1243535163        1.3457373310        2.5662959800
B             0.3730049256        0.9168787562        2.5662959800
B             1.3560570670        2.0480735615        2.5662959800
B             1.3551224688        0.9176911455        2.5662959800
B             0.3739394163        2.0472613415        2.5662959800
B             0.1254683783        1.0620839925        2.5662959800
B             1.1085205195        2.1932787016        2.5662959800
B             1.1075858722        1.0628963290        2.5662959800
B             0.1264029371        2.1924664727        2.5662959800
B             0.3682850310        0.0714808599        2.5662959800
B             1.3513373072        1.2026755291        2.5662959800
B             1.3504027141        0.0722930724        2.5662959800
B             0.3692196077        1.2018631098        2.5662959800
B             0.8548383096        0.6397742376        2.5662959800
B             1.8378904110        1.7709691077        2.5662959800
B             1.8369559037        0.6405865147        2.5662959800
B             0.8557730026        1.7701567449        2.5662959800
B             0.6100346235        0.4962240073        2.5662959800
B             1.5930868248        1.6274188863        2.5662959800
B             1.5921521775        0.4970362824        2.5662959800
B             0.6109691830        1.6266063915        2.5662959800
B             0.1273543443        0.7708432611        2.5662959800
B             1.1104065027        1.9020380750        2.5662959800
B             1.1094718594        0.7716556291        2.5662959800
B             0.1282889091        1.9012258245        2.5662959800
B             0.8596330458        0.9158397314        2.5662959800
B             1.8426851842        2.0470346813        2.5662959800
B             1.8417506037        0.9166521890        2.5662959800
B             0.8605677607        2.0462222638        2.5662959800
B             0.6100470430        0.2143159585        2.5662959800
B             1.5930991944        1.3455107638        2.5662959800
B             1.5921647037        0.2151281785        2.5662959800
B             0.6109816512        1.3446983745        2.5662959800
B             0.8575836005        0.0691108284        2.5662959800
B             1.8406357317        1.2003055375        2.5662959800
B             1.8397011829        0.0699230473        2.5662959800
B             0.8585182378        1.1994931910        2.5662959800
B             0.6147668028        1.0597139909        2.5662959800
B             1.5978190790        2.1909086701        2.5662959800
B             1.5968845023        1.0605264102        2.5662959800
B             0.6157013959        2.1900964576        2.5662959800
B             0.1282137090        0.4914204123        2.5662959800
B             1.1112658004        1.6226152924        2.5662959800
B             1.1103311174        0.4922327751        2.5662959800
B             0.1291482163        1.6218030053        2.5662959800
B             0.3730172952        0.6349706337        2.5662959800
B             1.3560694965        1.7661655127        2.5662959800
B             1.3551349370        0.6357831285        2.5662959800
B             0.3739519425        1.7653532376        2.5662959800
K_POINTS {AUTOMATIC}
3 3 1 0 0 0
