&CONTROL
	calculation='vc-relax'
	restart_mode='from_scratch'
	prefix='a0b1'
	pseudo_dir='/home/ngys/Desktop/pseudo'
	outdir='./tmp'
	tstress=.true.
/ 
&SYSTEM
  	ibrav = 0
  	A =    5.84500
  	nat = 56
 	ntyp = 1
	ecutwfc=50.0,
	ecutrho=400.0,
	occupations='smearing'
	smearing='m-v'
	degauss=0.01
	vdw_corr='dft-d3'
/ 
&ELECTRONS
	conv_thr=1.d-8
	mixing_beta=0.7
/ 
&IONS
	ion_dynamics='bfgs' ,
/ 
&CELL
	cell_dynamics='bfgs'
	cell_dofree='2Dxy'
/ 

ATOMIC_SPECIES
B	10.811	B.pbe-n-kjpaw_psl.1.0.0.UPF	
H	1.0	H.pbe-kjpaw_psl.1.0.0.UPF	
CELL_PARAMETERS {alat}
    2.004321395   0.001657805   0.000000000
   0.001907294   2.306902932   0.000000000
   0.000000000   0.000000000   5.132591959

ATOMIC_POSITIONS (alat)
B             0.8728683716        0.3680425773        2.5662959795
B             1.8759827246        1.5223229645        2.5662959795
B             1.8750291449        0.3688714760        2.5662959795
B             0.8738221143        1.5214940437        2.5662959795
B             0.1242404256        0.2196679011        2.5662959795
B             1.1273547888        1.3739482785        2.5662959795
B             1.1264009882        0.2204967669        2.5662959795
B             0.1251939863        1.3731193258        2.5662959795
B             0.3795616703        0.9359163959        2.5662959795
B             1.3826760356        2.0901967442        2.5662959795
B             1.3817223363        0.9367453825        2.5662959795
B             0.3805152729        2.0893679780        2.5662959795
B             0.1279422579        1.0833530480        2.5662959795
B             1.1310565982        2.2376333929        2.5662959795
B             1.1301029200        1.0841820287        2.5662959795
B             0.1288958521        2.2368046036        2.5662959795
B             0.3751111578        0.0735379651        2.5662959795
B             1.3782255428        1.2278182904        2.5662959795
B             1.3772718615        0.0743666595        2.5662959795
B             0.3760648263        1.2269892766        2.5662959795
B             0.8735456540        0.6522684036        2.5662959795
B             1.8766600476        1.8065488041        2.5662959795
B             1.8757065391        0.6530973456        2.5662959795
B             0.8744995604        1.8057199091        2.5662959795
B             0.6224055489        0.5060344312        2.5662959795
B             1.6255199052        1.6603148152        2.5662959795
B             1.6245662417        0.5068632862        2.5662959795
B             0.6233592752        1.6594858341        2.5662959795
B             0.1302459639        0.7862377724        2.5662959795
B             1.1333603170        1.9405181596        2.5662959795
B             1.1324065743        0.7870666932        2.5662959795
B             0.1311995436        1.9396892609        2.5662959795
B             0.8788738998        0.9346124584        2.5662959795
B             1.8819882629        2.0888928358        2.5662959795
B             1.8810347022        0.9354414111        2.5662959795
B             0.8798277003        2.0880639700        2.5662959795
B             0.6235526530        0.2183639926        2.5662959795
B             1.6266670183        1.3726443410        2.5662959795
B             1.6257134156        0.2191927589        2.5662959795
B             0.6245063523        1.3718153544        2.5662959795
B             0.8751720903        0.0709273441        2.5662959795
B             1.8782864306        1.2252076888        2.5662959795
B             1.8773328364        0.0717561333        2.5662959795
B             0.8761257685        1.2243787082        2.5662959795
B             0.6280031457        1.0807424464        2.5662959795
B             1.6311175307        2.2350227718        2.5662959795
B             1.6301638622        1.0815714603        2.5662959795
B             0.6289568270        2.2341940774        2.5662959795
B             0.1295686409        0.5020119328        2.5662959795
B             1.1326830345        1.6562923333        2.5662959795
B             1.1317291281        0.5028408278        2.5662959795
B             0.1305221494        1.6554633913        2.5662959795
B             0.3807087834        0.6482459217        2.5662959795
B             1.3838231397        1.8025263057        2.5662959795
B             1.3828694133        0.6490749028        2.5662959795
B             0.3816624469        1.8016974507        2.5662959795
K_POINTS {automatic}
3 3 1 0 0 0