&CONTROL
	calculation='scf'
	restart_mode='from_scratch'
	prefix='a1b1'
	pseudo_dir='/home/ngys/Desktop/pseudo'
	outdir='./tmp'
wf_collect=.true.
	tstress=.true.
/ 
&SYSTEM
	ibrav=0
	a=5.84500
	nat=56
	ntyp=1
	ecutwfc=50.0,
	ecutrho=400.0,
	occupations='smearing'
	smearing='m-v'
nbnd=225
nosym=.true,
	degauss=0.01
	vdw_corr='dft-d3'
/ 
&ELECTRONS
	conv_thr=1.d-8
	mixing_beta=0.7
/ 
&IONS
	ion_dynamics='bfgs' ,
/ 
&CELL
	cell_dynamics='bfgs'
	cell_dofree='2Dxy'
/ 
ATOMIC_SPECIES
B	10.811	B.pbe-n-kjpaw_psl.1.0.0.UPF	
H	1.0	H.pbe-kjpaw_psl.1.0.0.UPF	
CELL_PARAMETERS (alat)
2.02436461	0.00167438	0.00000000	
0.00192637	2.32997196	0.00000000	
0.00000000	0.00000000	5.13259196	
ATOMIC_POSITIONS {alat}
B             0.8816914951        0.3717796397        2.5662959800
B             1.8948370436        1.5376027877        2.5662959800
B             1.8938737710        0.3726168237        2.5662959800
B             0.8826546319        1.5367656302        2.5662959800
B             0.1252051518        0.2216150297        2.5662959800
B             1.1383506925        1.3874382199        2.5662959800
B             1.1373875703        0.2224521998        2.5662959800
B             0.1261684121        1.3866009551        2.5662959800
B             0.3828392196        0.9463029454        2.5662959800
B             1.3959848339        2.1121260535        2.5662959800
B             1.3950217182        0.9471400547        2.5662959800
B             0.3838025231        2.1112888447        2.5662959800
B             0.1293227963        1.0944234368        2.5662959800
B             1.1424683084        2.2602466412        2.5662959800
B             1.1415051822        1.0952605551        2.5662959800
B             0.1302860030        2.2594093446        2.5662959800
B             0.3789798098        0.0723438290        2.5662959800
B             1.3921254178        1.2381669968        2.5662959800
B             1.3911621177        0.0731811118        2.5662959800
B             0.3799429137        1.2373298939        2.5662959800
B             0.8826704975        0.6585517819        2.5662959800
B             1.8958160583        1.8243749053        2.5662959800
B             1.8948526635        0.6593889574        2.5662959800
B             0.8836335434        1.8235376920        2.5662959800
B             0.6295241726        0.5107720893        2.5662959800
B             1.6426697245        1.6765952744        2.5662959800
B             1.6417064339        0.5116093888        2.5662959800
B             0.6304873239        1.6757581376        2.5662959800
B             0.1314539264        0.7940435523        2.5662959800
B             1.1445994849        1.9598667003        2.5662959800
B             1.1436363481        0.7948807098        2.5662959800
B             0.1324172090        1.9590295163        2.5662959800
B             0.8879402875        0.9442081201        2.5662959800
B             1.9010858282        2.1100313103        2.5662959800
B             1.9001225679        0.9450453949        2.5662959800
B             0.8889034097        2.1091941402        2.5662959800
B             0.6303061461        0.2195202865        2.5662959800
B             1.6434517604        1.3853433946        2.5662959800
B             1.6424884569        0.2203575053        2.5662959800
B             0.6312692618        1.3845062953        2.5662959800
B             0.8838226616        0.0713997088        2.5662959800
B             1.8969681737        1.2372229132        2.5662959800
B             1.8960049670        0.0722369954        2.5662959800
B             0.8847857978        1.2363857949        2.5662959800
B             0.6341655622        1.0934793432        2.5662959800
B             1.6473111702        2.2593025110        2.5662959800
B             1.6463480563        1.0943164461        2.5662959800
B             0.6351288623        2.2584652382        2.5662959800
B             0.1304749217        0.5072714347        2.5662959800
B             1.1436204725        1.6730945681        2.5662959800
B             1.1426574366        0.5081086580        2.5662959800
B             0.1314383065        1.6722573926        2.5662959800
B             0.3836212455        0.6550510656        2.5662959800
B             1.3967667974        1.8208742607        2.5662959800
B             1.3958036561        0.6558882024        2.5662959800
B             0.3845845361        1.8200369612        2.5662959800
K_POINTS {AUTOMATIC}
3 3 1 0 0 0
