&CONTROL
	calculation='scf'
	restart_mode='from_scratch'
	prefix='a2b2'
	pseudo_dir='/home/ngys/Desktop/pseudo'
	outdir='./tmp'
	tstress=.true.
/ 
&SYSTEM
	ibrav=0
	a=5.84500
	nat=56
	ntyp=1
	ecutwfc=50.0,
	ecutrho=400.0,
	occupations='smearing'
	smearing='m-v'
	degauss=0.01
	vdw_corr='dft-d3'
/ 
&ELECTRONS
	conv_thr=1.d-8
	mixing_beta=0.7
/ 
&IONS
	ion_dynamics='bfgs' ,
/ 
&CELL
	cell_dynamics='bfgs'
	cell_dofree='2Dxy'
/ 
ATOMIC_SPECIES
B	10.811	B.pbe-n-kjpaw_psl.1.0.0.UPF	
H	1.0	H.pbe-kjpaw_psl.1.0.0.UPF	
CELL_PARAMETERS (alat)
2.04440782	0.00169096	0.00000000	
0.00194544	2.35304099	0.00000000	
0.00000000	0.00000000	5.13259196	
ATOMIC_POSITIONS {alat}
B             0.8903883287        0.3754922137        2.5662959800
B             1.9135650162        1.5528582842        2.5662959800
B             1.9125921001        0.3763376885        2.5662959800
B             0.8913608604        1.5520127008        2.5662959800
B             0.1257950507        0.2236597496        2.5662959800
B             1.1489718151        1.4010256547        2.5662959800
B             1.1479993663        0.2245052594        2.5662959800
B             0.1267681979        1.4001804116        2.5662959800
B             0.3861099880        0.9561378902        2.5662959800
B             1.4092867985        2.1335039456        2.5662959800
B             1.4083141545        0.9569832755        2.5662959800
B             0.3870827364        2.1326582658        2.5662959800
B             0.1306290830        1.1049729683        2.5662959800
B             1.1538057690        2.2823390171        2.5662959800
B             1.1528331091        1.1058183590        2.5662959800
B             0.1316019266        2.2814932299        2.5662959800
B             0.3825332690        0.0726641908        2.5662959800
B             1.4057100562        1.2500301751        2.5662959800
B             1.4047373469        0.0735100452        2.5662959800
B             0.3835060453        1.2491850145        2.5662959800
B             0.8919772600        0.6646572085        2.5662959800
B             1.9151539650        1.8420232606        2.5662959800
B             1.9141806793        0.6655024875        2.5662959800
B             0.8929494165        1.8411776631        2.5662959800
B             0.6360864409        0.5156079881        2.5662959800
B             1.6592633706        1.6929739935        2.5662959800
B             1.6582903283        0.5164535075        2.5662959800
B             0.6370589908        1.6921285059        2.5662959800
B             0.1327882438        0.8018736658        2.5662959800
B             1.1559649313        1.9792397363        2.5662959800
B             1.1549924096        0.8027192492        2.5662959800
B             0.1337611599        1.9783942715        2.5662959800
B             0.8973814449        0.9537062953        2.5662959800
B             1.9205582093        2.1310722004        2.5662959800
B             1.9195850721        0.9545515384        2.5662959800
B             0.8983538937        2.1302266906        2.5662959800
B             0.6370664715        0.2212280044        2.5662959800
B             1.6602432720        1.3985940598        2.5662959800
B             1.6592705236        0.2220736842        2.5662959800
B             0.6380391055        1.3977486745        2.5662959800
B             0.8925474910        0.0723929329        2.5662959800
B             1.9157241770        1.2497589817        2.5662959800
B             1.9147513334        0.0732387301        2.5662959800
B             0.8935201509        1.2489135910        2.5662959800
B             0.6406432038        1.1047017849        2.5662959800
B             1.6638199910        2.2820677592        2.5662959800
B             1.6628472147        1.1055469355        2.5662959800
B             0.6416159131        2.2812219048        2.5662959800
B             0.1311992950        0.5127086894        2.5662959800
B             1.1543760100        1.6900747415        2.5662959800
B             1.1534038435        0.5135542869        2.5662959800
B             0.1321725807        1.6892294625        2.5662959800
B             0.3870898894        0.6617579565        2.5662959800
B             1.4102668191        1.8391239619        2.5662959800
B             1.4092942692        0.6626034441        2.5662959800
B             0.3880629417        1.8382784425        2.5662959800
K_POINTS {AUTOMATIC}
3 3 1 0 0 0
