&CONTROL
	calculation='relax'
	restart_mode='from_scratch'
	prefix='a-1b0'
	pseudo_dir='/home/ngys/Desktop/pseudo'
	outdir='./tmp'
	tstress=.true.
/ 
&SYSTEM
	ibrav=0,
	celldm(1)=9.5463,
	celldm(2)=1,
	celldm(3)=5,
	celldm(4)=0.5
	nat=32
	ntyp=1
	ecutwfc=50.0,
	ecutrho=400.0,
	occupations='smearing'
	smearing='m-v'
	degauss=0.01
	vdw_corr='dft-d3'
/ 
&ELECTRONS
	conv_thr=1.d-8
	mixing_beta=0.7
/ 
&IONS
	ion_dynamics='bfgs' ,
/ 
&CELL
	cell_dynamics='bfgs'
	cell_dofree='2Dxy'
/ 
ATOMIC_SPECIES
B	10.811	B.pbe-n-kjpaw_psl.1.0.0.UPF	
H	1.0	H.pbe-kjpaw_psl.1.0.0.UPF	
CELL_PARAMETERS (alat)
1.98088400	0.00001068	0.00000000	
1.00045581	1.73282884	0.00000000	
0.00000000	0.00000000	5.00000000	
ATOMIC_POSITIONS {alat}
B	0.32278309	0.00009055	0.00000000	
B	0.65843578	-0.00022356	0.00000000	
B	0.16172012	0.28791752	0.00000000	
B	0.33009616	0.57887358	0.00000000	
B	0.49300817	0.28793839	0.00000000	
B	0.65839677	0.57891548	0.00000000	
B	0.82401916	0.28671181	0.00000000	
B	0.98916840	0.57831811	0.00000000	
B	0.82334859	0.86627495	0.00000000	
B	1.15904293	0.86640493	0.00000000	
B	0.66172819	1.15406197	0.00000000	
B	0.82968687	1.44496419	0.00000000	
B	0.99302999	1.15437042	0.00000000	
B	1.15792397	1.44573621	0.00000000	
B	1.32398106	1.15353435	0.00000000	
B	1.48873660	1.44479702	0.00000000	
B	1.31317593	0.00010511	0.00000000	
B	1.64888816	-0.00025743	0.00000000	
B	1.15223473	0.28789461	0.00000000	
B	1.32062398	0.57883284	0.00000000	
B	1.48347481	0.28784531	0.00000000	
B	1.64878357	0.57888582	0.00000000	
B	1.81441146	0.28665302	0.00000000	
B	1.97947417	0.57835432	0.00000000	
B	1.81378562	0.86632298	0.00000000	
B	2.14946616	0.86642626	0.00000000	
B	1.65227138	1.15408679	0.00000000	
B	1.82021550	1.44500254	0.00000000	
B	1.98360142	1.15442241	0.00000000	
B	2.14840555	1.44582825	0.00000000	
B	2.31445957	1.15359317	0.00000000	
B	2.47913888	1.44486603	0.00000000	
K_POINTS {AUTOMATIC}
3 3 1 0 0 0
