&CONTROL
	calculation='relax'
	restart_mode='from_scratch'
	prefix='a-1b-1'
	pseudo_dir='/home/ngys/Desktop/pseudo'
	outdir='./tmp'
	tstress=.true.
/ 
&SYSTEM
	ibrav=0,
	celldm(1)=9.5463,
	celldm(2)=1,
	celldm(3)=5,
	celldm(4)=0.5
	nat=32
	ntyp=1
	ecutwfc=50.0,
	ecutrho=400.0,
	occupations='smearing'
	smearing='m-v'
	degauss=0.01
	vdw_corr='dft-d3'
/ 
&ELECTRONS
	conv_thr=1.d-8
	mixing_beta=0.7
/ 
&IONS
	ion_dynamics='bfgs' ,
/ 
&CELL
	cell_dynamics='bfgs'
	cell_dofree='2Dxy'
/ 
ATOMIC_SPECIES
B	10.811	B.pbe-n-kjpaw_psl.1.0.0.UPF	
H	1.0	H.pbe-kjpaw_psl.1.0.0.UPF	
CELL_PARAMETERS (alat)
1.98088400	0.00001068	0.00000000	
0.99045125	1.71550055	0.00000000	
0.00000000	0.00000000	5.00000000	
ATOMIC_POSITIONS {alat}
B	0.32779186	-0.00006417	0.00000000	
B	0.66252998	-0.00005005	0.00000000	
B	0.16387695	0.28383364	0.00000000	
B	0.33125511	0.57371007	0.00000000	
B	0.49516737	0.28583638	0.00000000	
B	0.65910024	0.57372605	0.00000000	
B	0.82644631	0.28387788	0.00000000	
B	0.99044713	0.57179648	0.00000000	
B	0.82303659	0.85769754	0.00000000	
B	1.15777392	0.85771204	0.00000000	
B	0.65912096	1.14161566	0.00000000	
B	0.82649993	1.43149305	0.00000000	
B	0.99041232	1.14362123	0.00000000	
B	1.15432412	1.43149787	0.00000000	
B	1.32167095	1.14164799	0.00000000	
B	1.48565328	1.42955857	0.00000000	
B	1.31827110	-0.00005896	0.00000000	
B	1.65300919	-0.00004417	0.00000000	
B	1.15433819	0.28384963	0.00000000	
B	1.32171656	0.57372539	0.00000000	
B	1.48564851	0.28584138	0.00000000	
B	1.64955936	0.57372054	0.00000000	
B	1.81690550	0.28387131	0.00000000	
B	1.98088997	0.57177894	0.00000000	
B	1.81347907	0.85768416	0.00000000	
B	2.14821505	0.85769877	0.00000000	
B	1.64954791	1.14160908	0.00000000	
B	1.81692569	1.43148515	0.00000000	
B	1.98085497	1.14360386	0.00000000	
B	2.14478408	1.43149110	0.00000000	
B	2.31212949	1.14164265	0.00000000	
B	2.47613509	1.42956343	0.00000000	
K_POINTS {AUTOMATIC}
3 3 1 0 0 0
