&CONTROL
	calculation='relax'
	restart_mode='from_scratch'
	prefix='a-1b1'
	pseudo_dir='/home/ngys/Desktop/pseudo'
	outdir='./tmp'
	tstress=.true.
/ 
&SYSTEM
	ibrav=0,
	celldm(1)=9.5463,
	celldm(2)=1,
	celldm(3)=5,
	celldm(4)=0.5
	nat=32
	ntyp=1
	ecutwfc=50.0,
	ecutrho=400.0,
	occupations='smearing'
	smearing='m-v'
	degauss=0.01
	vdw_corr='dft-d3'
/ 
&ELECTRONS
	conv_thr=1.d-8
	mixing_beta=0.7
/ 
&IONS
	ion_dynamics='bfgs' ,
/ 
&CELL
	cell_dynamics='bfgs'
	cell_dofree='2Dxy'
/ 
ATOMIC_SPECIES
B	10.811	B.pbe-n-kjpaw_psl.1.0.0.UPF	
H	1.0	H.pbe-kjpaw_psl.1.0.0.UPF	
CELL_PARAMETERS (alat)
1.98088400	0.00001068	0.00000000	
1.01046037	1.75015713	0.00000000	
0.00000000	0.00000000	5.00000000	
ATOMIC_POSITIONS {alat}
B	0.31819433	0.00015592	0.00000000	
B	0.65448572	-0.00019644	0.00000000	
B	0.15925806	0.29147868	0.00000000	
B	0.32864561	0.58348527	0.00000000	
B	0.49078860	0.29007150	0.00000000	
B	0.65705198	0.58470605	0.00000000	
B	0.82128468	0.29000140	0.00000000	
B	0.98736171	0.58477465	0.00000000	
B	0.82372930	0.87515303	0.00000000	
B	1.15999456	0.87485300	0.00000000	
B	0.66445758	1.16658580	0.00000000	
B	0.83352090	1.45848705	0.00000000	
B	0.99603858	1.16522005	0.00000000	
B	1.16197303	1.46003522	0.00000000	
B	1.32654097	1.16521947	0.00000000	
B	1.49229293	1.46004071	0.00000000	
B	1.30855551	0.00007747	0.00000000	
B	1.64481932	-0.00026433	0.00000000	
B	1.14959987	0.29138204	0.00000000	
B	1.31901287	0.58337543	0.00000000	
B	1.48113718	0.28999852	0.00000000	
B	1.64745586	0.58471608	0.00000000	
B	1.81171346	0.29002725	0.00000000	
B	1.97783322	0.58484548	0.00000000	
B	1.81411741	0.87521976	0.00000000	
B	2.15038013	0.87491999	0.00000000	
B	1.65493173	1.16673312	0.00000000	
B	1.82399459	1.45859902	0.00000000	
B	1.98642332	1.16529334	0.00000000	
B	2.15235587	1.46002319	0.00000000	
B	2.31689845	1.16520716	0.00000000	
B	2.48266943	1.45989859	0.00000000	
K_POINTS {AUTOMATIC}
3 3 1 0 0 0
