&CONTROL
	calculation='relax'
	restart_mode='from_scratch'
	prefix='a-2b2'
	pseudo_dir='/home/ngys/Desktop/pseudo'
	outdir='./tmp'
	tstress=.true.
/ 
&SYSTEM
	ibrav=0,
	celldm(1)=9.5463,
	celldm(2)=1,
	celldm(3)=5,
	celldm(4)=0.5
	nat=32
	ntyp=1
	ecutwfc=50.0,
	ecutrho=400.0,
	occupations='smearing'
	smearing='m-v'
	degauss=0.01
	vdw_corr='dft-d3'
/ 
&ELECTRONS
	conv_thr=1.d-8
	mixing_beta=0.7
/ 
&IONS
	ion_dynamics='bfgs' ,
/ 
&CELL
	cell_dynamics='bfgs'
	cell_dofree='2Dxy'
/ 
ATOMIC_SPECIES
B	10.811	B.pbe-n-kjpaw_psl.1.0.0.UPF	
H	1.0	H.pbe-kjpaw_psl.1.0.0.UPF	
CELL_PARAMETERS (alat)
1.96087507	0.00001057	0.00000000	
1.02046493	1.76748542	0.00000000	
0.00000000	0.00000000	5.00000000	
ATOMIC_POSITIONS {alat}
B	0.30473648	0.00020061	0.00000000	
B	0.64039433	-0.00039367	0.00000000	
B	0.15215570	0.29533738	0.00000000	
B	0.32282849	0.58786674	0.00000000	
B	0.48135886	0.29112378	0.00000000	
B	0.64726218	0.59097918	0.00000000	
B	0.80819787	0.29269242	0.00000000	
B	0.97415897	0.59227519	0.00000000	
B	0.81522200	0.88407486	0.00000000	
B	1.15082826	0.88330700	0.00000000	
B	0.66260231	1.17936129	0.00000000	
B	0.83311683	1.47198484	0.00000000	
B	0.99176819	1.17511313	0.00000000	
B	1.15751348	1.47478701	0.00000000	
B	1.31860404	1.17649525	0.00000000	
B	1.48442146	1.47610239	0.00000000	
B	1.28517400	0.00020581	0.00000000	
B	1.62083185	-0.00038831	0.00000000	
B	1.13259332	0.29534262	0.00000000	
B	1.30326613	0.58787198	0.00000000	
B	1.46179641	0.29112904	0.00000000	
B	1.62769979	0.59098447	0.00000000	
B	1.78863535	0.29269766	0.00000000	
B	1.95459649	0.59228048	0.00000000	
B	1.79565957	0.88408007	0.00000000	
B	2.13126580	0.88331234	0.00000000	
B	1.64303994	1.17936650	0.00000000	
B	1.81355446	1.47199005	0.00000000	
B	1.97220574	1.17511837	0.00000000	
B	2.13795107	1.47479231	0.00000000	
B	2.29904151	1.17650049	0.00000000	
B	2.46485897	1.47610767	0.00000000	
K_POINTS {AUTOMATIC}
3 3 1 0 0 0
