&CONTROL
	calculation='relax'
	restart_mode='from_scratch'
	prefix='a-2b0'
	pseudo_dir='/home/ngys/Desktop/pseudo'
	outdir='./tmp'
	tstress=.true.
/ 
&SYSTEM
	ibrav=0,
	celldm(1)=9.5463,
	celldm(2)=1,
	celldm(3)=5,
	celldm(4)=0.5
	nat=32
	ntyp=1
	ecutwfc=50.0,
	ecutrho=400.0,
	occupations='smearing'
	smearing='m-v'
	degauss=0.01
	vdw_corr='dft-d3'
/ 
&ELECTRONS
	conv_thr=1.d-8
	mixing_beta=0.7
/ 
&IONS
	ion_dynamics='bfgs' ,
/ 
&CELL
	cell_dynamics='bfgs'
	cell_dofree='2Dxy'
/ 
ATOMIC_SPECIES
B	10.811	B.pbe-n-kjpaw_psl.1.0.0.UPF	
H	1.0	H.pbe-kjpaw_psl.1.0.0.UPF	
CELL_PARAMETERS (alat)
1.96087507	0.00001057	0.00000000	
1.00045581	1.73282884	0.00000000	
0.00000000	0.00000000	5.00000000	
ATOMIC_POSITIONS {alat}
B	0.31413499	0.00008668	0.00000000	
B	0.64846692	-0.00020891	0.00000000	
B	0.15735694	0.28805085	0.00000000	
B	0.32565348	0.57823213	0.00000000	
B	0.48588668	0.28718237	0.00000000	
B	0.65014704	0.57957900	0.00000000	
B	0.81332945	0.28655189	0.00000000	
B	0.97752334	0.57904727	0.00000000	
B	0.81457839	0.86645894	0.00000000	
B	1.14896046	0.86626032	0.00000000	
B	0.65738362	1.15451228	0.00000000	
B	0.82542142	1.44461903	0.00000000	
B	0.98587398	1.15366216	0.00000000	
B	1.14990132	1.44616384	0.00000000	
B	1.31332296	1.15304126	0.00000000	
B	1.47722879	1.44549253	0.00000000	
B	1.29457249	0.00009197	0.00000000	
B	1.62890438	-0.00020361	0.00000000	
B	1.13779446	0.28805616	0.00000000	
B	1.30609098	0.57823741	0.00000000	
B	1.46632417	0.28718768	0.00000000	
B	1.63058457	0.57958430	0.00000000	
B	1.79376693	0.28655714	0.00000000	
B	1.95796092	0.57905254	0.00000000	
B	1.79501592	0.86646420	0.00000000	
B	2.12939801	0.86626565	0.00000000	
B	1.63782112	1.15451757	0.00000000	
B	1.80585897	1.44462432	0.00000000	
B	1.96631148	1.15366746	0.00000000	
B	2.13033888	1.44616917	0.00000000	
B	2.29376045	1.15304659	0.00000000	
B	2.45766631	1.44549780	0.00000000	
K_POINTS {AUTOMATIC}
3 3 1 0 0 0
