&CONTROL
	calculation='relax'
	restart_mode='from_scratch'
	prefix='a-2b-2'
	pseudo_dir='/home/ngys/Desktop/pseudo'
	outdir='./tmp'
	tstress=.true.
/ 
&SYSTEM
	ibrav=0,
	celldm(1)=9.5463,
	celldm(2)=1,
	celldm(3)=5,
	celldm(4)=0.5
	nat=32
	ntyp=1
	ecutwfc=50.0,
	ecutrho=400.0,
	occupations='smearing'
	smearing='m-v'
	degauss=0.01
	vdw_corr='dft-d3'
/ 
&ELECTRONS
	conv_thr=1.d-8
	mixing_beta=0.7
/ 
&IONS
	ion_dynamics='bfgs' ,
/ 
&CELL
	cell_dynamics='bfgs'
	cell_dofree='2Dxy'
/ 
ATOMIC_SPECIES
B	10.811	B.pbe-n-kjpaw_psl.1.0.0.UPF	
H	1.0	H.pbe-kjpaw_psl.1.0.0.UPF	
CELL_PARAMETERS (alat)
1.96087507	0.00001057	0.00000000	
0.98044669	1.69817226	0.00000000	
0.00000000	0.00000000	5.00000000	
ATOMIC_POSITIONS {alat}
B	0.32383883	-0.00007687	0.00000000	
B	0.65652617	-0.00006958	0.00000000	
B	0.16189042	0.28041845	0.00000000	
B	0.32823833	0.56852665	0.00000000	
B	0.49018095	0.28295907	0.00000000	
B	0.65213488	0.56853100	0.00000000	
B	0.81846407	0.28044112	0.00000000	
B	0.98041658	0.56600271	0.00000000	
B	0.81406311	0.84901021	0.00000000	
B	1.14675029	0.84901716	0.00000000	
B	0.65211484	1.12950488	0.00000000	
B	0.81846252	1.41761310	0.00000000	
B	0.98040459	1.13204526	0.00000000	
B	1.14235801	1.41761692	0.00000000	
B	1.30868715	1.12952692	0.00000000	
B	1.47063964	1.41508867	0.00000000	
B	1.30427720	-0.00007061	0.00000000	
B	1.63696440	-0.00006355	0.00000000	
B	1.14232894	0.28042421	0.00000000	
B	1.30867674	0.56853251	0.00000000	
B	1.47061882	0.28296450	0.00000000	
B	1.63257199	0.56853635	0.00000000	
B	1.79890125	0.28044618	0.00000000	
B	1.96085384	0.56600791	0.00000000	
B	1.79449957	0.84901488	0.00000000	
B	2.12718686	0.84902199	0.00000000	
B	1.63255110	1.12950979	0.00000000	
B	1.79889917	1.41761804	0.00000000	
B	1.96084186	1.13205034	0.00000000	
B	2.12279558	1.41762235	0.00000000	
B	2.28912476	1.12953241	0.00000000	
B	2.45107742	1.41509410	0.00000000	
K_POINTS {AUTOMATIC}
3 3 1 0 0 0
