&CONTROL
	calculation='relax'
	restart_mode='from_scratch'
	prefix='a0b-2'
	pseudo_dir='/home/ngys/Desktop/pseudo'
	outdir='./tmp'
	tstress=.true.
/ 
&SYSTEM
	ibrav=0,
	celldm(1)=9.5463,
	celldm(2)=1,
	celldm(3)=5,
	celldm(4)=0.5
	nat=32
	ntyp=1
	ecutwfc=50.0,
	ecutrho=400.0,
	occupations='smearing'
	smearing='m-v'
	degauss=0.01
	vdw_corr='dft-d3'
/ 
&ELECTRONS
	conv_thr=1.d-8
	mixing_beta=0.7
/ 
&IONS
	ion_dynamics='bfgs' ,
/ 
&CELL
	cell_dynamics='bfgs'
	cell_dofree='2Dxy'
/ 
ATOMIC_SPECIES
B	10.811	B.pbe-n-kjpaw_psl.1.0.0.UPF	
H	1.0	H.pbe-kjpaw_psl.1.0.0.UPF	
CELL_PARAMETERS (alat)
2.00089293	0.00001079	0.00000000	
0.98044669	1.69817226	0.00000000	
0.00000000	0.00000000	5.00000000	
ATOMIC_POSITIONS {alat}
B	0.34151031	-0.00032014	0.00000000	
B	0.67691086	0.00028341	0.00000000	
B	0.17027836	0.27956877	0.00000000	
B	0.33716742	0.56937721	0.00000000	
B	0.50485078	0.28465251	0.00000000	
B	0.66796373	0.56846127	0.00000000	
B	0.84014135	0.28058322	0.00000000	
B	1.00344384	0.56439317	0.00000000	
B	0.83149413	0.84872088	0.00000000	
B	1.16689311	0.84943017	0.00000000	
B	0.66053999	1.12861121	0.00000000	
B	0.82762482	1.41849469	0.00000000	
B	0.99507368	1.13378035	0.00000000	
B	1.15841422	1.41759338	0.00000000	
B	1.33036792	1.12975665	0.00000000	
B	1.49392153	1.41347638	0.00000000	
B	1.34168048	-0.00040110	0.00000000	
B	1.67705826	0.00020046	0.00000000	
B	1.17069097	0.27957788	0.00000000	
B	1.33769233	0.56939312	0.00000000	
B	1.50507910	0.28454007	0.00000000	
B	1.66824665	0.56835251	0.00000000	
B	1.84040743	0.28045224	0.00000000	
B	2.00365074	0.56425774	0.00000000	
B	1.83166242	0.84863628	0.00000000	
B	2.16705333	0.84933844	0.00000000	
B	1.66094607	1.12861433	0.00000000	
B	1.82815748	1.41849284	0.00000000	
B	1.99530116	1.13364688	0.00000000	
B	2.15870563	1.41747022	0.00000000	
B	2.33064031	1.12962052	0.00000000	
B	2.49412527	1.41334149	0.00000000	
K_POINTS {AUTOMATIC}
3 3 1 0 0 0
