&CONTROL
	calculation='relax'
	restart_mode='from_scratch'
	prefix='a0b-1'
	pseudo_dir='/home/ngys/Desktop/pseudo'
	outdir='./tmp'
	tstress=.true.
/ 
&SYSTEM
	ibrav=0,
	celldm(1)=9.5463,
	celldm(2)=1,
	celldm(3)=5,
	celldm(4)=0.5
	nat=32
	ntyp=1
	ecutwfc=50.0,
	ecutrho=400.0,
	occupations='smearing'
	smearing='m-v'
	degauss=0.01
	vdw_corr='dft-d3'
/ 
&ELECTRONS
	conv_thr=1.d-8
	mixing_beta=0.7
/ 
&IONS
	ion_dynamics='bfgs' ,
/ 
&CELL
	cell_dynamics='bfgs'
	cell_dofree='2Dxy'
/ 
ATOMIC_SPECIES
B	10.811	B.pbe-n-kjpaw_psl.1.0.0.UPF	
H	1.0	H.pbe-kjpaw_psl.1.0.0.UPF	
CELL_PARAMETERS (alat)
2.00089293	0.00001079	0.00000000	
0.99045125	1.71550055	0.00000000	
0.00000000	0.00000000	5.00000000	
ATOMIC_POSITIONS {alat}
B	0.33677296	-0.00028042	0.00000000	
B	0.67280512	0.00012313	0.00000000	
B	0.16795076	0.28310374	0.00000000	
B	0.33552164	0.57389273	0.00000000	
B	0.50241736	0.28664974	0.00000000	
B	0.66673692	0.57385459	0.00000000	
B	0.83708699	0.28413770	0.00000000	
B	1.00167904	0.57089220	0.00000000	
B	0.83159593	0.85765864	0.00000000	
B	1.16765440	0.85769487	0.00000000	
B	0.66334011	1.14121639	0.00000000	
B	0.83132931	1.43196770	0.00000000	
B	0.99780895	1.14446172	0.00000000	
B	1.16261724	1.43137747	0.00000000	
B	1.33255444	1.14169050	0.00000000	
B	1.49749697	1.42872499	0.00000000	
B	1.33719467	-0.00023647	0.00000000	
B	1.67324250	0.00011126	0.00000000	
B	1.16836067	0.28317679	0.00000000	
B	1.33592434	0.57392810	0.00000000	
B	1.50290391	0.28671503	0.00000000	
B	1.66727081	0.57390187	0.00000000	
B	1.83760606	0.28417497	0.00000000	
B	2.00222383	0.57093249	0.00000000	
B	1.83205898	0.85769957	0.00000000	
B	2.16810027	0.85772548	0.00000000	
B	1.66375814	1.14127638	0.00000000	
B	1.83174208	1.43206979	0.00000000	
B	1.99816012	1.14451641	0.00000000	
B	2.16298301	1.43140846	0.00000000	
B	2.33289776	1.14171401	0.00000000	
B	2.49789842	1.42869265	0.00000000	
K_POINTS {AUTOMATIC}
3 3 1 0 0 0
