&CONTROL
	calculation='relax'
	restart_mode='from_scratch'
	prefix='a0b1'
	pseudo_dir='/home/ngys/Desktop/pseudo'
	outdir='./tmp'
	tstress=.true.
/ 
&SYSTEM
	ibrav=0,
	celldm(1)=9.5463,
	celldm(2)=1,
	celldm(3)=5,
	celldm(4)=0.5
	nat=32
	ntyp=1
	ecutwfc=50.0,
	ecutrho=400.0,
	occupations='smearing'
	smearing='m-v'
	degauss=0.01
	vdw_corr='dft-d3'
/ 
&ELECTRONS
	conv_thr=1.d-8
	mixing_beta=0.7
/ 
&IONS
	ion_dynamics='bfgs' ,
/ 
&CELL
	cell_dynamics='bfgs'
	cell_dofree='2Dxy'
/ 
ATOMIC_SPECIES
B	10.811	B.pbe-n-kjpaw_psl.1.0.0.UPF	
H	1.0	H.pbe-kjpaw_psl.1.0.0.UPF	
CELL_PARAMETERS (alat)
2.00089293	0.00001079	0.00000000	
1.01046037	1.75015713	0.00000000	
0.00000000	0.00000000	5.00000000	
ATOMIC_POSITIONS {alat}
B	0.32692042	0.00005322	0.00000000	
B	0.66447002	-0.00017632	0.00000000	
B	0.16360039	0.29120568	0.00000000	
B	0.33297358	0.58393648	0.00000000	
B	0.49793456	0.29084286	0.00000000	
B	0.66526300	0.58426338	0.00000000	
B	0.83192914	0.29033988	0.00000000	
B	0.99903261	0.58406496	0.00000000	
B	0.83239855	0.87503237	0.00000000	
B	1.16996921	0.87497915	0.00000000	
B	0.66878844	1.16625045	0.00000000	
B	0.83782679	1.45887915	0.00000000	
B	1.00312057	1.16594910	0.00000000	
B	1.17005401	1.45958380	0.00000000	
B	1.33704008	1.16559765	0.00000000	
B	1.50385175	1.45920491	0.00000000	
B	1.32731353	0.00006388	0.00000000	
B	1.66490536	-0.00020287	0.00000000	
B	1.16412409	0.29117815	0.00000000	
B	1.33350097	0.58388624	0.00000000	
B	1.49839356	0.29074705	0.00000000	
B	1.66564824	0.58422719	0.00000000	
B	1.83230990	0.29028340	0.00000000	
B	1.99933790	0.58410186	0.00000000	
B	1.83284145	0.87507423	0.00000000	
B	2.17040537	0.87500710	0.00000000	
B	1.66932436	1.16625247	0.00000000	
B	1.83836942	1.45889872	0.00000000	
B	2.00370434	1.16599285	0.00000000	
B	2.17054990	1.45966529	0.00000000	
B	2.33753711	1.16565882	0.00000000	
B	2.50425508	1.45928236	0.00000000	
K_POINTS {AUTOMATIC}
3 3 1 0 0 0
