&CONTROL
	calculation='relax'
	restart_mode='from_scratch'
	prefix='a0b2'
	pseudo_dir='/home/ngys/Desktop/pseudo'
	outdir='./tmp'
	tstress=.true.
/ 
&SYSTEM
	ibrav=0,
	celldm(1)=9.5463,
	celldm(2)=1,
	celldm(3)=5,
	celldm(4)=0.5
	nat=32
	ntyp=1
	ecutwfc=50.0,
	ecutrho=400.0,
	occupations='smearing'
	smearing='m-v'
	degauss=0.01
	vdw_corr='dft-d3'
/ 
&ELECTRONS
	conv_thr=1.d-8
	mixing_beta=0.7
/ 
&IONS
	ion_dynamics='bfgs' ,
/ 
&CELL
	cell_dynamics='bfgs'
	cell_dofree='2Dxy'
/ 
ATOMIC_SPECIES
B	10.811	B.pbe-n-kjpaw_psl.1.0.0.UPF	
H	1.0	H.pbe-kjpaw_psl.1.0.0.UPF	
CELL_PARAMETERS (alat)
2.00089293	0.00001079	0.00000000	
1.02046493	1.76748542	0.00000000	
0.00000000	0.00000000	5.00000000	
ATOMIC_POSITIONS {alat}
B	0.32233115	0.00022087	0.00000000	
B	0.66036471	-0.00025012	0.00000000	
B	0.16126983	0.29500156	0.00000000	
B	0.33168757	0.58872229	0.00000000	
B	0.49576876	0.29297200	0.00000000	
B	0.66409745	0.58972023	0.00000000	
B	0.82932163	0.29352530	0.00000000	
B	0.99737915	0.59056611	0.00000000	
B	0.83290859	0.88382176	0.00000000	
B	1.17091192	0.88350533	0.00000000	
B	0.67145286	1.17869131	0.00000000	
B	0.84148862	1.47228930	0.00000000	
B	1.00602733	1.17677612	0.00000000	
B	1.17395290	1.47379482	0.00000000	
B	1.33954961	1.17748641	0.00000000	
B	1.50724919	1.47449962	0.00000000	
B	1.32265723	0.00013210	0.00000000	
B	1.66067178	-0.00032658	0.00000000	
B	1.16161722	0.29490761	0.00000000	
B	1.33206752	0.58861132	0.00000000	
B	1.49610553	0.29288685	0.00000000	
B	1.66449810	0.58973966	0.00000000	
B	1.82973727	0.29355596	0.00000000	
B	1.99784556	0.59064519	0.00000000	
B	1.83330199	0.88390827	0.00000000	
B	2.17130122	0.88358752	0.00000000	
B	1.67192299	1.17883919	0.00000000	
B	1.84195575	1.47239628	0.00000000	
B	2.00640831	1.17685775	0.00000000	
B	2.17431681	1.47378661	0.00000000	
B	2.33990745	1.17748246	0.00000000	
B	2.50761769	1.47434580	0.00000000	
K_POINTS {AUTOMATIC}
3 3 1 0 0 0
