&CONTROL
	calculation='relax'
	restart_mode='from_scratch'
	prefix='a1b-1'
	pseudo_dir='/home/ngys/Desktop/pseudo'
	outdir='./tmp'
	tstress=.true.
/ 
&SYSTEM
	ibrav=0,
	celldm(1)=9.5463,
	celldm(2)=1,
	celldm(3)=5,
	celldm(4)=0.5
	nat=32
	ntyp=1
	ecutwfc=50.0,
	ecutrho=400.0,
	occupations='smearing'
	smearing='m-v'
	degauss=0.01
	vdw_corr='dft-d3'
/ 
&ELECTRONS
	conv_thr=1.d-8
	mixing_beta=0.7
/ 
&IONS
	ion_dynamics='bfgs' ,
/ 
&CELL
	cell_dynamics='bfgs'
	cell_dofree='2Dxy'
/ 
ATOMIC_SPECIES
B	10.811	B.pbe-n-kjpaw_psl.1.0.0.UPF	
H	1.0	H.pbe-kjpaw_psl.1.0.0.UPF	
CELL_PARAMETERS (alat)
2.02090186	0.00001090	0.00000000	
0.99045125	1.71550055	0.00000000	
0.00000000	0.00000000	5.00000000	
ATOMIC_POSITIONS {alat}
B	0.34538039	-0.00040181	0.00000000	
B	0.68291987	0.00023591	0.00000000	
B	0.17230998	0.28307199	0.00000000	
B	0.34015021	0.57448606	0.00000000	
B	0.50985298	0.28740667	0.00000000	
B	0.67496019	0.57352913	0.00000000	
B	0.84804210	0.28393384	0.00000000	
B	1.01334703	0.57006839	0.00000000	
B	0.84022427	0.85731511	0.00000000	
B	1.17775922	0.85801055	0.00000000	
B	0.66752453	1.14083008	0.00000000	
B	0.83560851	1.43233629	0.00000000	
B	1.00495779	1.14521269	0.00000000	
B	1.17044506	1.43132262	0.00000000	
B	1.34326015	1.14178728	0.00000000	
B	1.50891127	1.42785201	0.00000000	
B	1.35571020	-0.00035801	0.00000000	
B	1.69322473	0.00029424	0.00000000	
B	1.18272205	0.28303154	0.00000000	
B	1.35052911	0.57447541	0.00000000	
B	1.52016253	0.28747092	0.00000000	
B	1.68531477	0.57363247	0.00000000	
B	1.85839339	0.28403436	0.00000000	
B	2.02379896	0.57015772	0.00000000	
B	1.85072041	0.85738900	0.00000000	
B	2.18825313	0.85809069	0.00000000	
B	1.67807200	1.14084159	0.00000000	
B	1.84612347	1.43235407	0.00000000	
B	2.01544730	1.14530599	0.00000000	
B	2.18084305	1.43143000	0.00000000	
B	2.35364490	1.14190024	0.00000000	
B	2.51925711	1.42792549	0.00000000	
K_POINTS {AUTOMATIC}
3 3 1 0 0 0
