&CONTROL
	calculation='relax'
	restart_mode='from_scratch'
	prefix='a1b0'
	pseudo_dir='/home/ngys/Desktop/pseudo'
	outdir='./tmp'
	tstress=.true.
/ 
&SYSTEM
	ibrav=0,
	celldm(1)=9.5463,
	celldm(2)=1,
	celldm(3)=5,
	celldm(4)=0.5
	nat=32
	ntyp=1
	ecutwfc=50.0,
	ecutrho=400.0,
	occupations='smearing'
	smearing='m-v'
	degauss=0.01
	vdw_corr='dft-d3'
/ 
&ELECTRONS
	conv_thr=1.d-8
	mixing_beta=0.7
/ 
&IONS
	ion_dynamics='bfgs' ,
/ 
&CELL
	cell_dynamics='bfgs'
	cell_dofree='2Dxy'
/ 
ATOMIC_SPECIES
B	10.811	B.pbe-n-kjpaw_psl.1.0.0.UPF	
H	1.0	H.pbe-kjpaw_psl.1.0.0.UPF	
CELL_PARAMETERS (alat)
2.02090186	0.00001090	0.00000000	
1.00045581	1.73282884	0.00000000	
0.00000000	0.00000000	5.00000000	
ATOMIC_POSITIONS {alat}
B	0.34076505	-0.00030213	0.00000000	
B	0.67885860	0.00014112	0.00000000	
B	0.16996091	0.28654894	0.00000000	
B	0.33849566	0.57906659	0.00000000	
B	0.50736080	0.28955320	0.00000000	
B	0.67374034	0.57907528	0.00000000	
B	0.84505956	0.28758435	0.00000000	
B	1.01163733	0.57664817	0.00000000	
B	0.84056509	0.86632791	0.00000000	
B	1.17870151	0.86635158	0.00000000	
B	0.67037461	1.15336153	0.00000000	
B	0.83934129	1.44584003	0.00000000	
B	1.00781223	1.15603631	0.00000000	
B	1.17466061	1.44525636	0.00000000	
B	1.34556738	1.15379115	0.00000000	
B	1.51251002	1.44315462	0.00000000	
B	1.35118187	-0.00025424	0.00000000	
B	1.68931759	0.00012436	0.00000000	
B	1.18037044	0.28662664	0.00000000	
B	1.34890730	0.57911135	0.00000000	
B	1.51786901	0.28962212	0.00000000	
B	1.68428527	0.57913208	0.00000000	
B	1.85560367	0.28761929	0.00000000	
B	2.02219258	0.57669120	0.00000000	
B	1.85103411	0.86637722	0.00000000	
B	2.18914941	0.86637298	0.00000000	
B	1.68080263	1.15343292	0.00000000	
B	1.84975054	1.44595052	0.00000000	
B	2.01816235	1.15609216	0.00000000	
B	2.18501411	1.44529170	0.00000000	
B	2.35590855	1.15380524	0.00000000	
B	2.52291025	1.44311744	0.00000000	
K_POINTS {AUTOMATIC}
3 3 1 0 0 0
