&CONTROL
	calculation='relax'
	restart_mode='from_scratch'
	prefix='a1b1'
	pseudo_dir='/home/ngys/Desktop/pseudo'
	outdir='./tmp'
	tstress=.true.
/ 
&SYSTEM
	ibrav=0,
	celldm(1)=9.5463,
	celldm(2)=1,
	celldm(3)=5,
	celldm(4)=0.5
	nat=32
	ntyp=1
	ecutwfc=50.0,
	ecutrho=400.0,
	occupations='smearing'
	smearing='m-v'
	degauss=0.01
	vdw_corr='dft-d3'
/ 
&ELECTRONS
	conv_thr=1.d-8
	mixing_beta=0.7
/ 
&IONS
	ion_dynamics='bfgs' ,
/ 
&CELL
	cell_dynamics='bfgs'
	cell_dofree='2Dxy'
/ 
ATOMIC_SPECIES
B	10.811	B.pbe-n-kjpaw_psl.1.0.0.UPF	
H	1.0	H.pbe-kjpaw_psl.1.0.0.UPF	
CELL_PARAMETERS (alat)
2.02090186	0.00001090	0.00000000	
1.01046037	1.75015713	0.00000000	
0.00000000	0.00000000	5.00000000	
ATOMIC_POSITIONS {alat}
B	0.33574197	-0.00007077	0.00000000	
B	0.67452793	-0.00006467	0.00000000	
B	0.16784980	0.29072258	0.00000000	
B	0.33724682	0.58411461	0.00000000	
B	0.50514462	0.29159694	0.00000000	
B	0.67308963	0.58415246	0.00000000	
B	0.84247228	0.29077311	0.00000000	
B	1.01042721	0.58332850	0.00000000	
B	0.84102536	0.87503395	0.00000000	
B	1.17980966	0.87503971	0.00000000	
B	0.67313238	1.16589179	0.00000000	
B	0.84252925	1.45928389	0.00000000	
B	1.01042001	1.16675648	0.00000000	
B	1.17831293	1.45928809	0.00000000	
B	1.34769630	1.16590771	0.00000000	
B	1.51561057	1.45843191	0.00000000	
B	1.34629766	-0.00006523	0.00000000	
B	1.68508357	-0.00005941	0.00000000	
B	1.17834833	0.29076189	0.00000000	
B	1.34774425	0.58415272	0.00000000	
B	1.51568695	0.29160182	0.00000000	
B	1.68358597	0.58412448	0.00000000	
B	1.85296926	0.29074408	0.00000000	
B	2.02087747	0.58328030	0.00000000	
B	1.85147632	0.87499100	0.00000000	
B	2.19026061	0.87499687	0.00000000	
B	1.68353659	1.16586464	0.00000000	
B	1.85293269	1.45925538	0.00000000	
B	2.02087197	1.16670910	0.00000000	
B	2.18881251	1.45926054	0.00000000	
B	2.35819528	1.16588125	0.00000000	
B	2.52615451	1.45843776	0.00000000	
K_POINTS {AUTOMATIC}
3 3 1 0 0 0
