&CONTROL
	calculation='relax'
	restart_mode='from_scratch'
	prefix='a2b-2'
	pseudo_dir='/home/ngys/Desktop/pseudo'
	outdir='./tmp'
	tstress=.true.
/ 
&SYSTEM
	ibrav=0,
	celldm(1)=9.5463,
	celldm(2)=1,
	celldm(3)=5,
	celldm(4)=0.5
	nat=32
	ntyp=1
	ecutwfc=50.0,
	ecutrho=400.0,
	occupations='smearing'
	smearing='m-v'
	degauss=0.01
	vdw_corr='dft-d3'
/ 
&ELECTRONS
	conv_thr=1.d-8
	mixing_beta=0.7
/ 
&IONS
	ion_dynamics='bfgs' ,
/ 
&CELL
	cell_dynamics='bfgs'
	cell_dofree='2Dxy'
/ 
ATOMIC_SPECIES
B	10.811	B.pbe-n-kjpaw_psl.1.0.0.UPF	
H	1.0	H.pbe-kjpaw_psl.1.0.0.UPF	
CELL_PARAMETERS (alat)
2.04091079	0.00001101	0.00000000	
0.98044669	1.69817226	0.00000000	
0.00000000	0.00000000	5.00000000	
ATOMIC_POSITIONS {alat}
B	0.35839529	-0.00083651	0.00000000	
B	0.69709145	0.00064947	0.00000000	
B	0.17889401	0.27901689	0.00000000	
B	0.34612345	0.57006649	0.00000000	
B	0.51913935	0.28624475	0.00000000	
B	0.68372149	0.56860461	0.00000000	
B	0.86160869	0.28019406	0.00000000	
B	1.02627927	0.56255389	0.00000000	
B	0.84832463	0.84819033	0.00000000	
B	1.18707582	0.84980674	0.00000000	
B	0.66920532	1.12804772	0.00000000	
B	0.83652661	1.41913793	0.00000000	
B	1.00939601	1.13537092	0.00000000	
B	1.17414362	1.41784167	0.00000000	
B	1.35183428	1.12934599	0.00000000	
B	1.51673978	1.41158816	0.00000000	
B	1.37895688	-0.00077087	0.00000000	
B	1.71772880	0.00071080	0.00000000	
B	1.19934178	0.27905875	0.00000000	
B	1.36652394	0.57006149	0.00000000	
B	1.53974578	0.28630120	0.00000000	
B	1.70432425	0.56863498	0.00000000	
B	1.88223417	0.28025317	0.00000000	
B	2.04691676	0.56263164	0.00000000	
B	1.86895444	0.84823270	0.00000000	
B	2.20774002	0.84986296	0.00000000	
B	1.68967522	1.12804374	0.00000000	
B	1.85691904	1.41911567	0.00000000	
B	2.03001183	1.13542342	0.00000000	
B	2.19469979	1.41788937	0.00000000	
B	2.37244270	1.12942576	0.00000000	
B	2.53733309	1.41169916	0.00000000	
K_POINTS {AUTOMATIC}
3 3 1 0 0 0
