&CONTROL
	calculation='relax'
	restart_mode='from_scratch'
	prefix='a2b0'
	pseudo_dir='/home/ngys/Desktop/pseudo'
	outdir='./tmp'
	tstress=.true.
/ 
&SYSTEM
	ibrav=0,
	celldm(1)=9.5463,
	celldm(2)=1,
	celldm(3)=5,
	celldm(4)=0.5
	nat=32
	ntyp=1
	ecutwfc=50.0,
	ecutrho=400.0,
	occupations='smearing'
	smearing='m-v'
	degauss=0.01
	vdw_corr='dft-d3'
/ 
&ELECTRONS
	conv_thr=1.d-8
	mixing_beta=0.7
/ 
&IONS
	ion_dynamics='bfgs' ,
/ 
&CELL
	cell_dynamics='bfgs'
	cell_dofree='2Dxy'
/ 
ATOMIC_SPECIES
B	10.811	B.pbe-n-kjpaw_psl.1.0.0.UPF	
H	1.0	H.pbe-kjpaw_psl.1.0.0.UPF	
CELL_PARAMETERS (alat)
2.04091079	0.00001101	0.00000000	
1.00045581	1.73282884	0.00000000	
0.00000000	0.00000000	5.00000000	
ATOMIC_POSITIONS {alat}
B	0.34949622	-0.00047446	0.00000000	
B	0.68911295	0.00027135	0.00000000	
B	0.17429464	0.28640615	0.00000000	
B	0.34286663	0.57936068	0.00000000	
B	0.51489289	0.29032323	0.00000000	
B	0.68182707	0.57892246	0.00000000	
B	0.85585934	0.28756257	0.00000000	
B	1.02320537	0.57585238	0.00000000	
B	0.84906021	0.86608506	0.00000000	
B	1.18865666	0.86658903	0.00000000	
B	0.67455722	1.15307003	0.00000000	
B	0.84374434	1.44613077	0.00000000	
B	1.01497286	1.15680276	0.00000000	
B	1.18274649	1.44509908	0.00000000	
B	1.35616540	1.15390696	0.00000000	
B	1.52416349	1.44231821	0.00000000	
B	1.36986336	-0.00042286	0.00000000	
B	1.70943361	0.00034433	0.00000000	
B	1.19469725	0.28633892	0.00000000	
B	1.36322388	0.57932979	0.00000000	
B	1.53521215	0.29040144	0.00000000	
B	1.70219543	0.57902611	0.00000000	
B	1.87623111	0.28768178	0.00000000	
B	2.04368465	0.57597310	0.00000000	
B	1.86956988	0.86616772	0.00000000	
B	2.20916498	0.86668348	0.00000000	
B	1.69512615	1.15308688	0.00000000	
B	1.86429062	1.44615645	0.00000000	
B	2.03548548	1.15691556	0.00000000	
B	2.20317569	1.44521817	0.00000000	
B	2.37655590	1.15401990	0.00000000	
B	2.54451564	1.44240100	0.00000000	
K_POINTS {AUTOMATIC}
3 3 1 0 0 0
