&CONTROL
	calculation='relax'
	restart_mode='from_scratch'
	prefix='a2b2'
	pseudo_dir='/home/ngys/Desktop/pseudo'
	outdir='./tmp'
	tstress=.true.
/ 
&SYSTEM
	ibrav=0,
	celldm(1)=9.5463,
	celldm(2)=1,
	celldm(3)=5,
	celldm(4)=0.5
	nat=32
	ntyp=1
	ecutwfc=50.0,
	ecutrho=400.0,
	occupations='smearing'
	smearing='m-v'
	degauss=0.01
	vdw_corr='dft-d3'
/ 
&ELECTRONS
	conv_thr=1.d-8
	mixing_beta=0.7
/ 
&IONS
	ion_dynamics='bfgs' ,
/ 
&CELL
	cell_dynamics='bfgs'
	cell_dofree='2Dxy'
/ 
ATOMIC_SPECIES
B	10.811	B.pbe-n-kjpaw_psl.1.0.0.UPF	
H	1.0	H.pbe-kjpaw_psl.1.0.0.UPF	
CELL_PARAMETERS (alat)
2.04091079	0.00001101	0.00000000	
1.02046493	1.76748542	0.00000000	
0.00000000	0.00000000	5.00000000	
ATOMIC_POSITIONS {alat}
B	0.33985635	-0.00007142	0.00000000	
B	0.68041836	-0.00006494	0.00000000	
B	0.16990699	0.29428515	0.00000000	
B	0.34019244	0.58921549	0.00000000	
B	0.51014803	0.29448520	0.00000000	
B	0.68014814	0.58925172	0.00000000	
B	0.85041801	0.29433540	0.00000000	
B	1.02043361	0.58910549	0.00000000	
B	0.85014069	0.88369775	0.00000000	
B	1.19070065	0.88370379	0.00000000	
B	0.68019026	1.17811657	0.00000000	
B	0.85047560	1.47304585	0.00000000	
B	1.02042584	1.17830916	0.00000000	
B	1.19037408	1.47304999	0.00000000	
B	1.36064515	1.17813309	0.00000000	
B	1.53061935	1.47287305	0.00000000	
B	1.36041369	-0.00006604	0.00000000	
B	1.70097542	-0.00005966	0.00000000	
B	1.19040935	0.29432338	0.00000000	
B	1.36069335	0.58925220	0.00000000	
B	1.53069516	0.29449007	0.00000000	
B	1.70064813	0.58922521	0.00000000	
B	1.87091866	0.29430734	0.00000000	
B	2.04088846	0.58905741	0.00000000	
B	1.87059613	0.88365517	0.00000000	
B	2.21115613	0.88366170	0.00000000	
B	1.70060006	1.17809056	0.00000000	
B	1.87088471	1.47301833	0.00000000	
B	2.04088229	1.17826171	0.00000000	
B	2.21087744	1.47302336	0.00000000	
B	2.38114736	1.17810798	0.00000000	
B	2.55116767	1.47287886	0.00000000	
K_POINTS {AUTOMATIC}
3 3 1 0 0 0
