&CONTROL
	calculation='relax'
	restart_mode='from_scratch'
	prefix='x3'
	pseudo_dir='/home/ngys/Desktop/pseudo'
	outdir='./tmp'
	tstress=.true.
/ 
&SYSTEM
	ibrav=0,
	celldm(1)=9.5463,
	celldm(2)=1,
	celldm(3)=5,
	celldm(4)=0.5
	nat=32
	ntyp=1
	ecutwfc=50.0,
	ecutrho=400.0,
	occupations='smearing'
	smearing='m-v'
	degauss=0.01
	vdw_corr='dft-d3'
/ 
&ELECTRONS
	conv_thr=1.d-8
	mixing_beta=0.7
/ 
&IONS
	ion_dynamics='bfgs' ,
/ 
&CELL
	cell_dynamics='bfgs'
	cell_dofree='2Dxy'
/ 
ATOMIC_SPECIES
B	10.811	B.pbe-n-kjpaw_psl.1.0.0.UPF	
H	1.0	H.pbe-kjpaw_psl.1.0.0.UPF	
CELL_PARAMETERS (alat)
2.00089293	0.00001079	0.00000000	
1.00045581	1.73282884	0.00000000	
0.00000000	0.00000000	5.00000000	
ATOMIC_POSITIONS {alat}
B	0.33171143	-0.00007044	0.00000000	
B	0.66857792	-0.00006200	0.00000000	
B	0.16583361	0.28723152	0.00000000	
B	0.33427250	0.57895834	0.00000000	
B	0.50015146	0.28871447	0.00000000	
B	0.66607324	0.57898741	0.00000000	
B	0.83448999	0.28728190	0.00000000	
B	1.00042686	0.57755578	0.00000000	
B	0.83197999	0.86636498	0.00000000	
B	1.16884521	0.86637333	0.00000000	
B	0.66610080	1.15371540	0.00000000	
B	0.83454085	1.44544222	0.00000000	
B	1.00041582	1.15519442	0.00000000	
B	1.16629607	1.44544582	0.00000000	
B	1.33471419	1.15373973	0.00000000	
B	1.50061710	1.44398994	0.00000000	
B	1.33223766	-0.00006571	0.00000000	
B	1.66910483	-0.00005639	0.00000000	
B	1.16631689	0.28726249	0.00000000	
B	1.33475505	0.57898858	0.00000000	
B	1.50067206	0.28871912	0.00000000	
B	1.66655537	0.57896788	0.00000000	
B	1.83497226	0.28726078	0.00000000	
B	2.00087254	0.57751799	0.00000000	
B	1.83242695	0.86633208	0.00000000	
B	2.16929129	0.86634088	0.00000000	
B	1.66651168	1.15369659	0.00000000	
B	1.83494986	1.44542130	0.00000000	
B	2.00086342	1.15515690	0.00000000	
B	2.16678099	1.44542600	0.00000000	
B	2.33519764	1.15372098	0.00000000	
B	2.50113816	1.44399570	0.00000000	
K_POINTS {AUTOMATIC}
3 3 1 0 0 0
