&CONTROL
	calculation='vc-relax'
	restart_mode='from_scratch'
	prefix=''x3''
	pseudo_dir='/home/ngys/Desktop/pseudo'
	outdir='./tmp'
/ 
&SYSTEM
	ibrav=0,
	celldm(1)=9.5463,
	celldm(2)=1,
	celldm(3)=5,
	celldm(4)=0.5
	nat=32
	ntyp=1
	ecutwfc=60.0,
	ecutrho=400.0,
	occupations='smearing'
	smearing='m-v'
	degauss=0.01
/ 
&ELECTRONS
	conv_thr=1.d-8
	mixing_beta=0.7
/ 
&IONS
	ion_dynamics='bfgs' ,
/ 
&CELL
	cell_dynamics='bfgs'
	cell_dofree='2Dxy'
/ 
ATOMIC_SPECIES
B	10.811	b_pbe_v1.4.uspp.F.UPF	
CELL_PARAMETERS (alat)
2.00089293	0.00001079	0.00000000	
1.00045581	1.73282884	0.00000000	
0.00000000	0.00000000	5.00000000	
ATOMIC_POSITIONS {alat}
B	0.33129279	-0.00017569	0.00000000	
B	0.66906776	-0.00017826	0.00000000	
B	0.16553167	0.28691605	0.00000000	
B	0.33441030	0.57943154	0.00000000	
B	0.50016736	0.28871929	0.00000000	
B	0.66591161	0.57945248	0.00000000	
B	0.83480762	0.28691474	0.00000000	
B	1.00053683	0.57762760	0.00000000	
B	0.83152069	0.86623873	0.00000000	
B	1.16929566	0.86623616	0.00000000	
B	0.66575957	1.15333047	0.00000000	
B	0.83463821	1.44584596	0.00000000	
B	1.00039527	1.15513371	0.00000000	
B	1.16613951	1.44586690	0.00000000	
B	1.33503552	1.15332917	0.00000000	
B	1.50076474	1.44404202	0.00000000	
B	1.33173926	-0.00017030	0.00000000	
B	1.66951422	-0.00017287	0.00000000	
B	1.16597814	0.28692144	0.00000000	
B	1.33485677	0.57943693	0.00000000	
B	1.50061383	0.28872468	0.00000000	
B	1.66635808	0.57945787	0.00000000	
B	1.83525409	0.28692014	0.00000000	
B	2.00098330	0.57763299	0.00000000	
B	1.83196716	0.86624412	0.00000000	
B	2.16974213	0.86624155	0.00000000	
B	1.66620604	1.15333586	0.00000000	
B	1.83508467	1.44585135	0.00000000	
B	2.00084173	1.15513910	0.00000000	
B	2.16658598	1.44587229	0.00000000	
B	2.33548199	1.15333456	0.00000000	
B	2.50121120	1.44404741	0.00000000	
K_POINTS {AUTOMATIC}
10 10 1 0 0 0
