&CONTROL
	calculation='vc-relax'
	restart_mode='from_scratch'
	prefix=''x3''
	pseudo_dir='/home/ngys/Desktop/pseudo'
	outdir='./tmp'
/ 
&SYSTEM
	ibrav=0,
	celldm(1)=9.5463,
	celldm(2)=1,
	celldm(3)=5,
	celldm(4)=0.5
	nat=32
	ntyp=1
	ecutwfc=60.0,
	ecutrho=400.0,
	occupations='smearing'
	smearing='m-v'
	degauss=0.01
/ 
&ELECTRONS
	conv_thr=1.d-8
	mixing_beta=0.7
/ 
&IONS
	ion_dynamics='bfgs' ,
/ 
&CELL
	cell_dynamics='bfgs'
	cell_dofree='2Dxy'
/ 
ATOMIC_SPECIES
B	10.811	b_pbe_v1.4.uspp.F.UPF	
CELL_PARAMETERS (alat)
2.00089293	0.00001079	0.00000000	
1.00045581	1.73282884	0.00000000	
0.00000000	0.00000000	5.00000000	
ATOMIC_POSITIONS {angstrom}
B	1.67302859	-0.00088724	0.00000000	
B	3.37879216	-0.00090023	0.00000000	
B	0.83593493	1.44892605	0.00000000	
B	1.68877203	2.92612927	0.00000000	
B	2.52584517	1.45803239	0.00000000	
B	3.36285363	2.92623500	0.00000000	
B	4.21577848	1.44891946	0.00000000	
B	5.05271101	2.91701937	0.00000000	
B	2.17325650	0.86552718	0.00000000	
B	3.87902007	0.86551419	0.00000000	
B	1.33616283	2.31534047	0.00000000	
B	2.18899993	3.79254369	0.00000000	
B	3.02607308	2.32444681	0.00000000	
B	3.86308154	3.79264942	0.00000000	
B	4.71600639	2.31533388	0.00000000	
B	5.55293891	3.78343380	0.00000000	
B	2.67347506	-0.00088185	0.00000000	
B	4.37923863	-0.00089484	0.00000000	
B	1.83638140	1.44893144	0.00000000	
B	2.68921849	2.92613466	0.00000000	
B	3.52629164	1.45803779	0.00000000	
B	4.36330010	2.92624039	0.00000000	
B	5.21622495	1.44892485	0.00000000	
B	6.05315748	2.91702477	0.00000000	
B	3.17370296	0.86553257	0.00000000	
B	4.87946653	0.86551958	0.00000000	
B	2.33660930	2.31534586	0.00000000	
B	3.18944640	3.79254908	0.00000000	
B	4.02651954	2.32445221	0.00000000	
B	4.86352800	3.79265481	0.00000000	
B	5.71645285	2.31533927	0.00000000	
B	6.55338538	3.78343919	0.00000000	
K_POINTS {AUTOMATIC}
10 10 1 0 0 0
